LAMMPS data file extracted from NVT dump, timestep 1500000, units metal

192 atoms
2 atom types

0.0000000000000000e+00 1.6195563468200000e+01 xlo xhi
0.0000000000000000e+00 1.6195563468200000e+01 ylo yhi
0.0000000000000000e+00 1.6195563468200000e+01 zlo zhi

Masses

1 12.00000000
2 16.00000000

Atoms # atomic

1 1 5.5501119763320004e+00 2.5611316504019999e+00 9.5558287607159995e-02
2 1 1.0654630112510000e+01 1.2801503530370001e+01 8.3873634075529999e+00
3 1 1.0653026837800001e+01 5.4726561140100003e+00 1.0195191037210000e+01
4 1 1.0169552610169999e+01 1.6129299252770000e+00 1.0364863566049999e+01
5 1 2.7783172679630002e+00 4.4855643699780003e+00 1.0675200765260000e+01
6 1 1.3624185448890000e+01 2.5880751885679998e+00 1.2102268904530000e+01
7 1 1.3372758232370000e+01 4.6516914565400000e+00 3.8667269902179999e+00
8 1 9.1718278490189997e-01 1.2976390618760000e+01 5.3395379641730001e-01
9 1 4.0381725741030001e+00 8.3277635678999999e+00 8.2538274223839991e+00
10 1 8.0396945358950003e+00 1.3695004462980000e+01 5.1078533735929996e+00
11 1 1.1276808093430001e+01 4.5667741073119998e+00 1.4113218818629999e+01
12 1 8.4561757970640006e+00 1.4125561003830001e+01 1.1133753210049999e+01
13 1 9.3943544375810006e+00 9.1927593424380003e+00 7.5999732899680001e+00
14 1 7.4105453562230004e+00 1.4785158531089999e+00 7.5530702942460000e+00
15 1 2.2030507070559999e-01 9.3830630215789999e+00 6.3759692039990004e+00
16 1 3.7245595646999998e+00 4.1653546306680003e+00 3.8816119371690001e+00
17 1 2.7788782376520000e+00 9.9810664375250005e-02 1.5734360770940000e+01
18 1 6.1388548530330000e+00 2.4522308329080000e+00 1.1099549064050001e+01
19 1 3.0042276982540002e+00 1.5751468795000001e+00 7.0831183234989998e+00
20 1 9.4922137480619995e-01 1.5655187244060000e+01 3.2270779459460002e+00
21 1 1.6327344535289999e+01 2.6931568779310000e+00 5.4334114765710000e+00
22 1 5.1652418931859998e+00 6.8076879413020004e+00 7.7767369793480001e-01
23 1 1.1417117975620000e+01 1.0087340664710000e+01 4.3979066880010000e+00
24 1 7.1042779450760003e+00 1.3371641862580001e+01 5.3225596503689998e-01
25 1 1.7422232852180000e+00 1.6080040651459999e+01 1.1722112442069999e+01
26 1 8.1834674267060006e+00 4.8044624047899998e+00 3.0621022694160001e+00
27 1 4.9101817717909997e+00 1.4494947766099999e+01 9.2348495699630000e+00
28 1 1.2817640723880000e+01 1.4352490221149999e+01 3.8913520449700001e+00
29 1 4.6863174650110002e+00 7.8640892810459997e+00 1.2440454579160001e+01
30 1 1.3251413154350001e+01 1.5205452915800000e+01 1.0817293874960001e+01
31 1 2.3256020570059999e+00 9.4366297577089995e+00 3.1941327196690001e+00
32 1 1.7040635783850000e+00 5.8081889401400000e+00 7.3409568077409997e+00
33 1 1.1611522834160001e+01 9.8112620269470003e+00 1.5213747653610000e+01
34 1 1.1164650348700000e+01 1.2711597124810000e+01 1.1972387001980000e+00
35 1 1.5833853426530000e+01 3.8292408477689999e+00 1.5363406282280000e+01
36 1 1.4670686861189999e+01 8.8378071069989996e+00 8.6271327273200005e-01
37 1 1.0553165460940001e+01 5.1016391271949999e+00 6.8493209050410000e+00
38 1 1.4175449327810000e+01 1.5407205664330000e+01 1.4993124179010000e+01
39 1 1.1258719643070000e+01 6.9000220964189998e+00 1.6825855382110000e+00
40 1 1.3083544845680001e+01 6.4932922281899996e-01 7.5520159090750001e+00
41 1 8.1500385155719997e+00 5.2686143333129998e-01 1.4147449365550001e+01
42 1 6.3239007294740004e+00 1.1573233756530000e+01 9.6640172673430005e+00
43 1 8.3709160870130006e+00 8.8733616937670003e+00 1.1707908079770000e+01
44 1 1.5656538569200000e+01 3.5791220635259999e+00 9.2371173263529993e+00
45 1 5.8405981706730001e+00 1.0993808393589999e+01 3.6878680736609999e+00
46 1 1.3142156294579999e+01 9.7100131023460001e+00 1.1707530958480000e+01
47 1 6.6704088435620001e-01 9.6381099098920000e+00 1.0261202562699999e+01
48 1 3.1286965720510000e+00 4.8694136348620001e+00 1.4509755299449999e+01
49 1 1.4800394049639999e+01 7.6922436411249997e+00 4.0241026821550001e+00
50 1 5.1343280809509997e+00 1.3654751111170000e+01 1.3600422234330001e+01
51 1 4.0886655200949997e+00 1.0379816522270000e+01 1.5457563733170000e+01
52 1 1.0293299615800001e+01 1.3214978632459999e+00 5.1132625049840001e+00
53 1 9.7151526884070005e+00 1.4171741449719999e+00 1.3805797079750000e+00
54 1 1.5732670619009999e+01 1.2310692278370000e+01 1.2968233349760000e+01
55 1 2.8058915552650001e+00 1.1763972871900000e+01 6.7069706172370003e+00
56 1 6.0288390063369999e+00 4.8045887845569997e+00 6.5186763943089998e+00
57 1 6.4013251736249996e+00 1.6201002195570000e+00 4.2089693185160000e+00
58 1 1.4894139627540000e+01 6.9401423030700000e+00 1.2570936837100000e+01
59 1 1.4268425358300000e+01 1.5768000132490001e+00 1.5755383241459999e+00
60 1 1.3922188709120000e+01 7.4155986773110003e+00 7.7003780027089999e+00
61 1 8.2709070451250000e+00 9.1787123997400002e+00 3.1220578948430000e+00
62 1 1.4773237407010001e+01 1.2579110382640000e+01 7.1330154421999996e+00
63 1 8.0125498017940000e-01 1.4872242049310000e+01 8.3038188632139995e+00
64 1 1.3647532388460000e+00 6.0957427612800004e+00 1.9635270140109999e+00
65 2 6.3008943403020004e+00 2.1034958185699999e+00 1.5480741323029999e+01
66 2 4.8022565680020000e+00 2.9606224995299999e+00 9.0553181770919999e-01
67 2 1.1002479091380000e+01 1.3554566336760001e+01 7.5590468443190000e+00
68 2 1.0448156310410001e+01 1.1996003891670000e+01 9.2058452076480002e+00
69 2 9.8568667660530007e+00 5.4400975919510000e+00 1.1055444028269999e+01
70 2 1.1486601392630000e+01 5.5777298253950001e+00 9.3968185077760005e+00
71 2 1.1011827692880001e+01 8.3914542738039999e-01 1.0027379569080001e+01
72 2 9.2822470451210002e+00 2.3297996286550000e+00 1.0503420937800000e+01
73 2 3.7622748720970001e+00 4.9871028854430000e+00 1.0191087849840001e+01
74 2 1.7838428503549999e+00 4.0634509769680003e+00 1.1153979246630000e+01
75 2 1.4681563617049999e+01 2.9870120907610000e+00 1.2440786621199999e+01
76 2 1.2508294979200000e+01 2.2490813556750000e+00 1.1897223065630000e+01
77 2 1.3915855656120000e+01 5.0604037984380001e+00 2.9332049067199999e+00
78 2 1.2941666617759999e+01 4.2041655882890003e+00 4.8587367277459999e+00
79 2 7.9679722614199999e-01 1.2934500899570001e+01 1.7048260078749999e+00
80 2 1.1048757243580001e+00 1.3030627107040001e+01 1.5543444938049999e+01
81 2 2.9459880942190000e+00 8.7347576722220008e+00 8.3748577880290007e+00
82 2 5.0737655682340002e+00 7.8214561127959996e+00 8.1147588997860005e+00
83 2 7.3828911072760004e+00 1.4521173666599999e+01 4.5650482121640001e+00
84 2 8.7452350854720002e+00 1.2919644424740000e+01 5.6084193775960003e+00
85 2 1.1933976711480000e+01 5.3218440848500004e+00 1.3526612835140000e+01
86 2 1.0617507893750000e+01 3.8986233603230001e+00 1.4791217342340000e+01
87 2 8.5363505568030007e+00 1.4434870585610000e+01 1.0019196684280001e+01
88 2 8.3846838624629996e+00 1.3994367781010000e+01 1.2284213141960000e+01
89 2 8.6746449210430008e+00 9.9938026989409998e+00 7.0814422752850001e+00
90 2 1.0015587995890000e+01 8.4741878896050000e+00 8.2808148433359996e+00
91 2 8.0397156683940008e+00 2.3949905603240000e+00 7.9294828135250004e+00
92 2 6.7027518832949999e+00 6.6817160248999996e-01 7.0695485005979997e+00
93 2 1.6064073455090000e+01 9.9978297159329994e+00 5.4330264758749998e+00
94 2 5.5876791933500003e-01 8.9085368905879996e+00 7.3915589049679999e+00
95 2 3.3817737416300000e+00 3.0895443545769998e+00 4.1869547920210000e+00
96 2 4.0424166167799997e+00 5.2295277089779999e+00 3.5127005854459998e+00
97 2 2.0056719170980002e+00 8.1102861392509995e-01 1.5162172648220000e+01
98 2 3.5393110068390001e+00 1.5634433874790000e+01 9.8920809449339994e-02
99 2 6.0105092284549997e+00 3.5555631209479999e+00 1.1516718536250000e+01
100 2 6.0648113467259996e+00 1.2852740815060000e+00 1.0818192713300000e+01
101 2 3.3505359457949999e+00 9.3375414848430005e-01 6.1855332476290004e+00
102 2 2.6389047711470002e+00 2.1664385338150001e+00 8.0484349560300004e+00
103 2 1.0082223373920001e+00 7.0406680851110001e-02 2.2518125532790001e+00
104 2 8.7236193427800002e-01 1.5019238037310000e+01 4.2296502330559997e+00
105 2 1.6118165382390000e+01 1.6566177492909999e+00 4.9180436439459996e+00
106 2 4.5721528813320000e-01 3.7090958420950000e+00 5.9376652524590003e+00
107 2 5.7160650043669996e+00 5.9550453242000003e+00 1.6484964464060001e-01
108 2 4.4926777277380001e+00 7.5826322820840000e+00 1.3117339945460000e+00
109 2 1.1537412496020000e+01 1.0671452334460000e+01 3.4187070400309998e+00
110 2 1.1346606085239999e+01 9.4851244230279992e+00 5.4026035714680001e+00
111 2 6.8625692389850004e+00 1.3668584484980000e+01 1.6355052491730000e+00
112 2 7.2972217965260002e+00 1.3038624892410001e+01 1.5612686042320000e+01
113 2 8.8522302728970004e-01 5.1259376946299995e-01 1.1206595704380000e+01
114 2 2.6213628469680001e+00 1.5433465317020000e+01 1.2168067558420001e+01
115 2 7.0485493492840003e+00 5.0373929085290001e+00 2.9593637963880002e+00
116 2 9.3203336136140003e+00 4.5107335124020000e+00 3.1404945947820000e+00
117 2 5.2485126693180000e+00 1.4521041006480001e+01 1.0360182501600001e+01
118 2 4.5309278069749999e+00 1.4386228749110000e+01 8.1312358270429996e+00
119 2 1.2663286643830000e+01 1.5467020902570001e+01 3.5371939636479999e+00
120 2 1.2845253261650001e+01 1.3295798039839999e+01 4.3791121340240000e+00
121 2 4.4639896267939996e+00 7.0425293791380001e+00 1.3255285882340001e+01
122 2 5.1538993178319998e+00 8.5317740267279998e+00 1.1585522234930000e+01
123 2 1.4044663705210001e+01 -1.8034064163659999e-01 1.0539878585049999e+01
124 2 1.2494700852719999e+01 1.4342722557249999e+01 1.1091801653030000e+01
125 2 2.2947941238050000e+00 8.4845771118359998e+00 3.8387161634710001e+00
126 2 2.2952829534490000e+00 1.0398845159720000e+01 2.5708535564410000e+00
127 2 2.4492411282600002e+00 5.8007910928710000e+00 6.4305223178860000e+00
128 2 1.0264636103280000e+00 5.9243441221579998e+00 8.2729797911110001e+00
129 2 1.1339393843870001e+01 1.0942954459490000e+01 1.5269609185349999e+01
130 2 1.1893859621570000e+01 8.6414705794620001e+00 1.5133512926060000e+01
131 2 1.0070999035650001e+01 1.2510796920230000e+01 1.6081653445690001e+00
132 2 1.2233000164550001e+01 1.2830378678640001e+01 7.9634497288789996e-01
133 2 9.0273602378679998e-02 2.7803036969799999e+00 1.5657724115840001e+01
134 2 1.5241520409450001e+01 4.8317700014809999e+00 1.5168684476359999e+01
135 2 1.4215202464190000e+01 7.7752303270990000e+00 8.6067253142839995e-01
136 2 1.5085797840820000e+01 9.9454944415019995e+00 9.0758072243440002e-01
137 2 1.0981982366660000e+01 6.1677815291910001e+00 6.6915352817649998e+00
138 2 1.0135570582310001e+01 4.0256643389829998e+00 7.0458852943270003e+00
139 2 1.3890871979710001e+01 1.4404481350010000e+01 1.5496557606240000e+01
140 2 1.4464736312430000e+01 2.5099735745599999e-01 1.4508240221930000e+01
141 2 1.1333270742570001e+01 5.7973203695719997e+00 1.2810294904770001e+00
142 2 1.1223568886890000e+01 7.9883884948030000e+00 2.1349620773629998e+00
143 2 1.3183112770559999e+01 1.5711576869949999e+01 7.9431294195140003e+00
144 2 1.2976505108500000e+01 1.7278479741320001e+00 7.0898302405980003e+00
145 2 8.1154416833070009e+00 1.3114948219000000e+00 1.3259111431279999e+01
146 2 8.4434001449589999e+00 1.5988151726010001e+01 1.5017504512930000e+01
147 2 5.2258019355879997e+00 1.1311283096320000e+01 9.3004138912169996e+00
148 2 7.4630617594980002e+00 1.1611642276770000e+01 1.0058828007800001e+01
149 2 8.9065890436400004e+00 9.3959922962229996e+00 1.2602130054670001e+01
150 2 7.9880623993709996e+00 8.3676452865610003e+00 1.0712743826890000e+01
151 2 1.5111370324030000e+01 4.5328126462749996e+00 9.6909394603629995e+00
152 2 1.6114232271910002e+01 2.6225445457449998e+00 8.8169819513279997e+00
153 2 6.1591264628070004e+00 1.2090133690149999e+01 3.9459930101870002e+00
154 2 5.4997815479860002e+00 9.8761337115860002e+00 3.5177151144379999e+00
155 2 1.4125249811230001e+01 9.4916878754309995e+00 1.2369242091269999e+01
156 2 1.2102903018570000e+01 9.9528062808069997e+00 1.1127501028630000e+01
157 2 1.4145787971890000e+00 8.7911239377579999e+00 1.0593927306030000e+01
158 2 1.6047744139470002e+01 1.0435107889939999e+01 9.9342809044219997e+00
159 2 2.5586988553690002e+00 5.6504522026329997e+00 1.5153190264430000e+01
160 2 3.7070123292980002e+00 4.0744575750100003e+00 1.3865955334430000e+01
161 2 1.3796201018700000e+01 8.2726643944799996e+00 3.9311022696059998e+00
162 2 1.5906199256970000e+01 7.2631697180200003e+00 4.0062337262529999e+00
163 2 4.7315384863209999e+00 1.2542914722530000e+01 1.3354119212890000e+01
164 2 5.6068030880080002e+00 1.4733573661630000e+01 1.3756093190570001e+01
165 2 5.2078053316239998e+00 1.0769296078449999e+01 1.5588342703790000e+01
166 2 3.0101358473239999e+00 9.9371175526260007e+00 1.5490174582730001e+01
167 2 1.0837595550460000e+01 2.1316732905190001e+00 4.4741690312870004e+00
168 2 9.7136325168259994e+00 5.8191838469129997e-01 5.8089083639880004e+00
169 2 1.0827603951810000e+01 1.1936341892080000e+00 1.6404372232250000e+00
170 2 8.6266805326389999e+00 1.5955290702110001e+00 1.0288542549519999e+00
171 2 1.5039441358690000e+01 1.3187283164660000e+01 1.2680460971410000e+01
172 2 2.1545592877740000e-01 1.1361946379080001e+01 1.3213501959649999e+01
173 2 1.8831084537339999e+00 1.2218876629130000e+01 7.2212045022450004e+00
174 2 3.8523472078249998e+00 1.1406585239080000e+01 6.2553068127799998e+00
175 2 6.4834211802199997e+00 5.7917195618350004e+00 6.0053034626430000e+00
176 2 5.4320823000939997e+00 3.8960525099710002e+00 6.9476399965780002e+00
177 2 7.2350771409240000e+00 2.3904374182170001e+00 4.4967014294869996e+00
178 2 5.6697854978109996e+00 7.9898912979460002e-01 3.7481585928830001e+00
179 2 1.4206277596250001e+01 6.7526287943250001e+00 1.1626344788480001e+01
180 2 1.5641542936890000e+01 7.1114801473479998e+00 1.3479270748879999e+01
181 2 1.4145265588090000e+01 4.3871016470680002e-01 1.3150190112130000e+00
182 2 1.4369004764500000e+01 2.6952821714040001e+00 1.8923831164470000e+00
183 2 1.4520550472189999e+01 6.6806961052440004e+00 6.9550308379760004e+00
184 2 1.3312107019360001e+01 8.1077666124059995e+00 8.4502216717120007e+00
185 2 8.0047486722060004e+00 8.0738389140530007e+00 3.1734741017760002e+00
186 2 8.5184336611850000e+00 1.0304910361190000e+01 3.1645028870109999e+00
187 2 1.5000026358280000e+01 1.3674774812920001e+01 6.8170981851160004e+00
188 2 1.4492405373690000e+01 1.1480315639530000e+01 7.4565990835650000e+00
189 2 9.4257575659990001e-01 1.5739236229179999e+01 7.4946628419449999e+00
190 2 9.2470906577459999e-01 1.4044549066420000e+01 9.1392509150179997e+00
191 2 1.3184722723800000e+00 4.9557747327969999e+00 2.1871395289320001e+00
192 2 1.3963233244740001e+00 7.1865244874899998e+00 1.6063878677240000e+00

Velocities

1 4.6750068464270003e+00 5.8349551529820003e+00 -6.7416038736610000e+00
2 -1.8241730299690000e+00 5.0480316547189998e+00 -5.0037066791929998e+00
3 -6.9924241978129997e-01 2.3180774946720000e+00 -5.6957429504170003e+00
4 7.3234357436700002e+00 5.1517727532419997e+00 -4.5162234457110001e-01
5 1.0672666643780000e-01 9.8081179129069995e-01 -5.0722017846960004e+00
6 -8.7262380194589995e-01 -1.4472233534440001e+01 -4.7582881802730004e+00
7 -3.3288565386260000e-01 2.1832607502420001e-01 5.2671831253769996e+00
8 8.3248632138160001e+00 -4.4791479541500001e+00 -1.6115001574270000e+01
9 4.8819442526539998e+00 6.4258581884380002e+00 -5.9756677936329998e+00
10 8.5607291017139997e-01 5.6118409116599999e-01 6.8758104803400002e+00
11 -2.3456890688300001e+00 -5.2704976322989996e+00 -6.3710176409720001e+00
12 1.2007795581520000e+01 -4.3087276668229997e+00 -6.3438336246359999e+00
13 -2.2701974365809998e+00 -5.2553718235879998e+00 -5.0997860639930002e+00
14 5.6813368248740002e+00 2.0024288656009999e+00 -5.2836866540929996e+00
15 -1.1847037521379999e+00 1.3843218095140000e+00 8.3722707556970004e+00
16 2.9427003731179999e+00 1.6085665869040000e+00 6.8819822414190002e+00
17 1.6645847336430000e+00 -1.2181584310639999e+00 -4.0225265761970003e-01
18 -1.9934908336410001e-01 1.0477943542940000e+01 2.4985353310799998e+00
19 -8.9312360502190007e+00 5.2977690163820004e+00 3.9540653811570001e+00
20 1.9395029590760000e+00 2.8460437570580002e+00 6.7777273546360002e+00
21 2.2394684650840002e+00 2.2449936041990002e+00 4.5130267493609999e+00
22 -4.8046052355309996e+00 -7.0622991132369997e+00 4.0674670614539998e+00
23 -3.0941549012120002e+00 2.6042774863800000e+00 -8.1043624907369995e+00
24 -3.2357606500559999e-01 -8.7928657901249996e-01 6.6027681872199997e+00
25 -9.3300495421809995e+00 -5.1312280754849997e+00 -1.1827887526450001e+00
26 2.3353229607110002e+00 2.4996391073700002e+00 2.0665645728480002e+00
27 -1.3565368139170000e+00 9.8297888695089997e-01 -8.4898023736389998e+00
28 4.5189965219669999e+00 6.4338542588710004e+00 6.2970643512119997e+00
29 -2.7336151729789999e+00 3.8189997073330000e+00 4.4290021556630004e+00
30 1.2978644400060000e+00 -8.4086588662539992e+00 7.5762332676010002e+00
31 1.6673612378960001e+00 -1.5225680698880001e-01 -4.6541496923260001e-01
32 -2.8834491676530001e+00 2.9737032056200001e+00 -1.3952011346610000e+00
33 -2.9983956718279998e+00 2.8431107565890001e+00 -2.9680817591399999e+00
34 2.4350834995040000e+00 7.4631381100710001e+00 5.7146719779819999e-02
35 7.3582505545640000e+00 4.1732326797189998e+00 2.6792453623450001e+00
36 -7.4396172184960001e+00 -4.5148951591369997e+00 7.5469459889849999e-01
37 -7.2668928774230002e-01 9.2508858065500004e+00 8.4737723761429995e-01
38 4.9713053298820000e+00 -1.3869798876390000e+00 -2.8946146748479999e+00
39 -3.8372634944280000e+00 1.1625488052780000e+00 -7.8567402680080001e-01
40 3.0860320842209998e+00 6.1388300361199999e+00 -5.1043596850949999e+00
41 -9.8397911284329997e-01 -2.1464486703870000e+00 -3.5671008187809998e+00
42 -2.0935571170620002e+00 5.6402179441709999e+00 5.9027776777160001e+00
43 6.9749566104609997e+00 2.2731516923949999e+00 5.2219560915169998e+00
44 -7.9821212295039995e-02 -3.2293250522540000e+00 -6.4779273453719997e+00
45 3.9289050482549999e+00 -6.8551193798950000e-02 4.5762021219319999e+00
46 7.9226045604669997e+00 1.3391975516900001e+00 8.7825092822990003e-01
47 -1.8939734306670000e+00 2.9065698116409999e+00 -1.3877687418880000e+00
48 -3.3193452273430002e+00 -8.7067088958799999e-01 -2.9687994394319999e+00
49 1.6591579303180000e+00 -1.4765266293410000e+00 -8.6859189268869996e-01
50 -7.8540809777270004e+00 -9.1255044083249999e+00 -5.1439121935480001e+00
51 -2.7814346398110001e+00 7.3536232815710001e+00 -3.2914283215990001e+00
52 8.7360673436519996e+00 5.2134265158820003e+00 -3.2732680427480001e+00
53 -2.1198572824799999e+00 8.9639629791010000e-01 -3.6985636680090002e+00
54 2.4081631402990000e+00 -3.2764068105269999e+00 -3.0966970236929998e+00
55 2.1333726057220002e+00 -6.5622943618339997e+00 5.1518764337930001e-01
56 3.7045789068190000e+00 -1.3948648307410001e+00 -1.9663545501440001e+00
57 -3.6131162118839999e+00 3.0418025313399999e-01 2.3060251977780002e+00
58 1.2786512503900000e+00 1.0652366069110000e+00 2.3967565781650001e-02
59 3.5437601755260002e+00 4.3948872348850001e+00 2.0238904571490002e+00
60 -1.6984210127880000e+00 6.4716556658379998e-01 1.1995214992490000e+01
61 -3.3644623136249998e+00 2.9823456608300001e+00 6.1688714149519996e-01
62 -4.2973457576409997e+00 1.8815619572840001e+00 -1.0033737319220000e+00
63 -7.9852394440670000e+00 -1.0995048919429999e+00 -7.7019190869179999e-01
64 7.3976978940159999e+00 9.5076239119130008e+00 5.4735448312779997e+00
65 -2.3863824173940000e+00 -1.0131848436060000e+00 -2.3010495408409999e+00
66 2.0328827494259998e+00 3.6485226531090000e+00 1.4733600639510001e+00
67 6.2050348147549999e+00 -1.7590355941830000e+00 -1.0274500373470000e+01
68 -5.7129063045869999e-01 9.1075721998079995e-01 2.7461234031199999e+00
69 4.9961806946890004e+00 -4.1867966555429996e+00 1.1283585151869999e+00
70 -6.0917327548670004e+00 3.9230008820350002e+00 5.8909338254710004e+00
71 -3.8103862026530000e-01 -5.4400017870379997e+00 -7.8933622028530004e-01
72 -6.3141225140020003e+00 -7.0896907894630001e-01 -2.1376021582929998e+00
73 -2.1954922557890000e+00 -2.7069454408809999e+00 7.5558280613560003e+00
74 -1.5565964247090001e+00 -3.5331665244470001e+00 -4.6539011533450001e+00
75 -6.2490561697120004e+00 1.7014474674619999e+00 9.9579034287449997e-01
76 -6.3607879691670002e+00 2.9785308382280001e-01 -2.6880235670669999e+00
77 -1.5377840925410000e+00 4.3068423515249998e+00 2.0089179621389999e+00
78 8.5875398051800005e+00 1.9961948372089999e-01 -8.5525516555329997e-03
79 3.4430810830460001e+00 -1.8286118082030001e+00 1.2446916785050000e+00
80 2.4783327774489998e+00 6.7174789740800001e-01 -1.4836671899210001e+00
81 4.7307067948340000e+00 2.6310547107320001e+00 -1.7574000684810001e+00
82 9.4387172019840004e-01 -2.8597310381269998e+00 -2.4602092263839999e-04
83 3.4620573584360002e+00 1.5155960971200000e+00 3.6628852404719998e+00
84 -3.7796104925200003e-01 7.8490536884280004e-01 -3.6194474433299999e+00
85 -8.3537412631310008e+00 -9.4410721512380000e+00 2.5660574579700000e+00
86 3.5343168018640001e+00 6.1634961380480000e+00 -4.9922414666560000e+00
87 6.4150909997390002e+00 -3.2277299021429999e+00 1.1189721629130001e-01
88 -5.6878174289230001e+00 9.8494978950380006e+00 -2.3120410669860001e+00
89 -1.1123123169319999e+00 -1.1374438596140000e+00 8.4811299424609992e+00
90 2.9466961881249998e+00 -2.9670669769170002e+00 3.3744156958709999e+00
91 6.0450539322439996e+00 -4.0454229206969998e+00 -5.8384057709989996e+00
92 1.6332985037479999e+00 4.5281073624239996e+00 9.6044173876540004e-02
93 4.7703983064309998e+00 1.3223838801400001e+00 4.8612298726179998e-01
94 -2.2855196357160001e+00 8.7877838436760003e-01 -4.5900073654200002e-01
95 5.6847531032479998e-02 9.1408100177450002e-01 -2.4990109755729999e+00
96 -9.9552523037050005e+00 -2.4728887846359999e+00 2.9493678266759998e-01
97 -4.1431729984540002e+00 3.8539807082220001e+00 3.7721891642049998e+00
98 4.7276787797080000e-01 -5.2870036170800006e-01 2.1706449690310001e+00
99 8.0368236213249997e-02 -4.9432398494329997e+00 -2.8174744962190001e-01
100 3.5028778778850000e+00 5.5052454774969997e+00 1.8643437664889999e+00
101 7.2773083088490003e+00 -3.3081880534750002e-01 5.0184701256649999e+00
102 5.3979986611869997e+00 4.1302910321650002e+00 8.1674522307980002e+00
103 1.0779758107060000e+00 -2.9043894251630000e+00 -1.5578016058519999e+00
104 7.9068425532479996e+00 -2.0985969763590000e+00 2.9057004800409998e+00
105 9.5600506643840006e+00 -4.0365648016310001e+00 2.1759266042809999e+00
106 2.1276578584100001e+00 -3.7285209509019999e-02 5.2879624203380005e-01
107 -1.0507981896730001e+00 -2.4819529543379999e+00 2.5005480746259998e+00
108 -1.9742136311430001e+00 -5.2324954199190001e+00 8.0252849618069995e+00
109 2.7654946801109999e+00 -2.1142858540720000e+00 5.5985501135169997e+00
110 -8.6410846233219996e+00 3.3624102973970000e+00 1.3190976489099999e+00
111 -2.2456337379650000e+00 -3.4603515249049999e-01 -1.5622079461459999e+00
112 6.1013414202390004e-01 -4.8102349137690004e+00 1.1491264597890001e+00
113 -2.6551993255720001e+00 3.3160835565440001e+00 6.0352471880250000e+00
114 1.7800457011040001e+00 4.3753195375539997e+00 8.7431029689689999e-01
115 3.3944452779619998e+00 -1.5187623949219999e+00 -8.5125872716869999e-01
116 1.1408776364860000e+00 -3.7079810509229998e+00 4.3709993318649998e+00
117 2.3601538515899998e+00 -1.1665981883630001e+00 5.5518462033490001e+00
118 -1.2184796993859999e+01 2.5710868547160000e+00 2.0473243498100002e+00
119 -5.2124028189390001e+00 -4.7895632703119997e+00 -2.9440968225190001e+00
120 -2.4021323136730000e+00 5.7506624313439998e+00 5.6132107408560001e+00
121 5.7670894448500001e-02 4.6724518492389997e+00 6.0780221391919997e-01
122 2.5934903816119999e+00 -7.3650326038900005e-01 1.7970395285690000e+00
123 4.9584750296690000e-01 -2.2756202666280001e+00 -6.0722951375449996e-01
124 -5.1820669190680002e+00 1.2948333815980001e-01 -1.6583350268929999e+00
125 2.5700475584319999e+00 -4.0245968941559997e+00 3.3848012308589999e+00
126 -9.0898042504050003e-01 -2.7648084579690002e-01 -6.5641874804050004e-01
127 5.8166251460960003e+00 -2.6063455391830002e+00 -4.3971785617889996e+00
128 1.5236169652439999e+00 -7.9148120926770005e-01 3.4494488434299999e+00
129 -2.3540679506590001e+00 -5.2491925423480001e-01 2.3711968656379998e+00
130 4.9620955212420004e+00 1.3853099753039999e+00 -1.0101685985030000e+01
131 -6.5449132021559997e+00 -4.9727339571930003e+00 -1.0860746965179999e+00
132 -3.8847980286979999e+00 4.8861906189170001e-01 -2.3184143712880001e+00
133 -1.9792834912540000e+00 -2.5709899081890000e+00 2.8590787111160000e-03
134 -3.0676522549660001e+00 -3.9197255803980000e+00 1.2693796234020001e+01
135 1.4096600150880001e+00 1.1234954385160001e+00 -4.9653519167829998e+00
136 -1.2881274915679999e-01 1.8461380909750000e+00 -4.4265992517660004e+00
137 -2.1347064046340001e+00 -9.4120491094319991e+00 -1.8793121156119998e-02
138 -2.2595378823950001e+00 -6.3486825253019996e-01 7.5462606396589997e+00
139 -1.6756805785210001e+00 -2.1544612053040000e+00 4.2456873050360002e+00
140 1.8042337305230001e+00 -7.4067123496710003e+00 -2.7072900414249998e+00
141 -2.3630726825910000e+00 6.5064910558870004e-01 -3.0561260437000000e+00
142 1.8205239310029999e+00 -1.9587509289459999e+00 -2.5994539181840000e+00
143 3.5525431882420002e+00 -3.0636493098330000e+00 -3.4487352489259999e+00
144 -3.9393004819650002e+00 3.7094321496589999e+00 -6.9804662529410000e-01
145 -8.0556131840760004e-01 -1.8310018740300000e+00 -8.2024251211500001e+00
146 6.9674685538860004e-01 4.3076862818930000e+00 1.5649156358620000e+00
147 1.5483464494990000e+00 1.1327631782340000e+00 -4.4808510399379999e+00
148 1.7487467037660001e+00 5.3657850393679996e-01 -1.7058690979230000e+00
149 -3.2296724767820000e+00 6.6810897228779997e-01 4.7035123078890004e+00
150 -2.9399992880260002e+00 1.3539026569110000e+00 -5.9003921360989997e-01
151 -1.2217021063869999e+00 1.2539643903219999e+00 6.9868622064249997e-01
152 4.4762983884779999e+00 2.3371474956550000e+00 -1.2706508479359999e+00
153 -1.7610989025170001e-01 4.6439195554269999e+00 6.6272454141250003e+00
154 3.3775695337389999e+00 -2.4016269894979998e+00 -7.8992001074860001e+00
155 6.0480470673070004e+00 -6.5902302337550001e-01 4.5853647978099998e-01
156 4.4923365993279996e+00 3.9973641015329999e+00 -4.0500848285710003e+00
157 7.7132148740469997e-01 -1.3384009873320000e+00 -2.6214476449510000e+00
158 2.1491028388619999e+00 -8.0930487138259999e-01 -2.5078930029280002e+00
159 2.1611157362830000e+00 8.4932583506739991e+00 -2.1781964078090001e+00
160 -3.1831011551190003e-01 -1.3944174862159999e+00 -1.5495028009280001e+00
161 4.8640033697420000e+00 7.5500821920299999e-01 -7.1281082934990003e+00
162 -8.0163260418589992e+00 1.7416877988120001e+00 2.7536549156280001e+00
163 -4.0549321474540001e+00 -1.7634436173029999e+00 -2.9608970048500001e+00
164 -3.3204986040920001e+00 -1.9208489000669999e+00 9.4386776917240001e-01
165 4.5351635877029999e+00 7.2410622312179997e+00 3.7306706479550000e-01
166 -2.0835964863609999e+00 -3.1508853877609999e+00 -5.3413341096440003e+00
167 -8.0736240640190005e+00 4.4935713704470004e+00 1.5423365407550000e+00
168 -1.4868795874160001e-01 -2.2378899361640001e+00 -2.9193038135870000e-02
169 -2.1004831629059999e+00 4.5765488137389996e+00 -1.4573264208139999e-01
170 -1.5218050067700000e+00 -8.6304089682280001e+00 7.1058527185789999e-01
171 -6.1180301715510002e+00 2.4296151068400000e+00 -2.4008608426119999e+00
172 -1.2301601839820000e+00 -5.0675457710799998e+00 2.0053859748759999e+00
173 -9.8468339377340008e+00 -3.1129728659170000e+00 9.0402332475260005e-01
174 3.8541153982809999e+00 -1.0594639260490000e+01 5.6370536582310002e+00
175 -4.7465083598579998e+00 4.7715313583230001e-01 -6.2667796253869996e+00
176 -5.7402446502610003e+00 -1.8288020967579999e-01 6.1508690029150004e-01
177 4.8945924415880002e-03 2.3257347604680001e-01 -1.0220028886150001e+00
178 2.0028490958140002e+00 -5.0237379587130002e+00 4.2781266666839999e+00
179 2.4966260608200002e+00 -2.8428685463829999e+00 6.0660019570699997e-01
180 -2.7910566023720000e+00 -5.6871453073320000e+00 2.1734789049940000e+00
181 -9.4904933770359996e+00 -5.5271484302299996e+00 -2.5773798576910001e+00
182 -2.9259239235969998e+00 9.3549968468339995e-01 3.7996878648210002e+00
183 -1.6816803198570001e+00 -3.8777652848440001e+00 1.1474674621620000e+00
184 -8.2090789700050004e-01 1.0374466936099999e+01 -5.1678823054140004e+00
185 -1.2822619497810001e-01 -1.5589205570869999e-01 -4.0902971690200003e+00
186 5.6262175084699999e+00 2.4923977783139999e+00 2.2381639033249998e+00
187 1.2924884262600000e+00 3.4889715868200000e+00 -6.0244216692809998e+00
188 1.6294202003290001e-01 1.0019235571659999e+00 2.3683902348440000e-01
189 2.2289925690099999e+00 7.0398318630050003e+00 1.5014716109449999e-01
190 2.7398429762320000e+00 -7.7718993382030002e+00 -2.5845138717920002e+00
191 4.4572914634550003e+00 4.4277769946719996e+00 -8.9307010140099996e-01
192 -4.9389598942590002e-01 -2.8854470732310000e+00 3.9969473953049999e+00
