LAMMPS data file extracted from NVT dump, timestep 1740000, units metal

192 atoms
2 atom types

0.0000000000000000e+00 1.6195563468200000e+01 xlo xhi
0.0000000000000000e+00 1.6195563468200000e+01 ylo yhi
0.0000000000000000e+00 1.6195563468200000e+01 zlo zhi

Masses

1 12.00000000
2 16.00000000

Atoms # atomic

1 1 1.8787628263170000e+00 9.1268969912810007e+00 1.2022920352320000e+01
2 1 1.8184768201299999e+00 7.8349713561190004e+00 1.4994005817130001e+01
3 1 1.0209271648880000e+01 9.0920421936570008e+00 1.2501022791900001e+00
4 1 1.4601976894780000e+00 4.7530542267650002e+00 1.3536701187520000e+01
5 1 1.1834973663950000e+01 1.3634400897210000e+01 6.7456531262069996e-01
6 1 3.2326922030579999e+00 1.1764717134140000e+01 -3.0309885864549999e-02
7 1 1.3772612198250000e+01 8.8208073093299999e-01 1.0835378004470000e+01
8 1 5.7229023311249998e+00 1.3833658631330000e+01 1.2198440368010001e+01
9 1 8.0111823692369999e+00 8.6853594587159999e-01 7.1766943841520003e+00
10 1 1.4846640126840001e+01 1.4058081596279999e+01 3.8666183777410001e+00
11 1 1.0871188561660000e+01 9.8052802645889994e+00 1.3586487660470000e+01
12 1 6.0376362422329999e+00 1.1896368395340000e+01 7.3200028867200002e+00
13 1 1.3725009326509999e+01 1.9995691640619999e+00 1.5493057647300001e+01
14 1 4.5767000725050000e+00 6.5524321262310004e+00 1.3299237918350000e+01
15 1 7.4993410896809998e+00 3.4330523109550000e+00 3.5345194745109998e+00
16 1 6.8959555817760004e-02 9.6847439155800004e+00 3.7256999732209999e+00
17 1 3.5095734635900002e+00 7.9303725896270005e-01 3.7798531376089999e+00
18 1 2.7387752929790001e+00 1.2034182397310000e+01 8.9274775602820000e+00
19 1 1.0361121878470000e+01 2.2104557743780000e+00 1.4306500360039999e+01
20 1 1.4036297659949999e+00 5.9719342116040002e+00 4.7644528757010001e+00
21 1 5.6540273411110000e+00 7.2981250415510002e-01 1.4596337978270000e+01
22 1 1.8461113863200000e+00 9.2204825864399993e-03 1.1961636695479999e+01
23 1 1.5244595653550000e+01 8.5352238274890002e+00 7.7641268961540000e+00
24 1 1.2801550372740000e+01 5.8326472933989999e+00 1.3858175841850001e+01
25 1 1.0106251660350001e+01 1.3925097317430000e+01 7.6416984116959998e+00
26 1 7.1607953807279996e+00 9.7471805975599999e+00 1.1162353156020000e+01
27 1 7.6835754977270003e+00 5.7628987030280001e+00 1.5841159222580000e+01
28 1 1.2776806354800000e+01 5.0663585890910001e+00 6.8180133741980002e+00
29 1 4.3260975791160003e+00 4.8794357096790000e+00 1.8215146731559999e+00
30 1 1.4063995329060001e+01 1.1454263933289999e+01 6.3233490367760004e+00
31 1 3.6340507871110002e+00 8.3032525294230002e+00 6.4478907175189999e+00
32 1 2.1672043369770000e+00 1.2614790767660001e+01 4.7216042006509999e+00
33 1 1.5612780854210000e+00 4.2647576765809996e+00 8.2143180326359992e+00
34 1 6.8262278075650000e+00 6.7909158747719998e+00 8.8062982851449991e+00
35 1 1.4738485438970001e+01 9.8204917920770001e+00 1.1307035170380001e+01
36 1 3.5071393758450000e+00 8.0823067213830004e+00 2.2813585958560001e+00
37 1 1.5098238029530000e+01 5.8885425857340001e+00 2.0567690846460001e+00
38 1 6.7924405554550003e+00 1.0919532048210000e+01 2.5055599959140000e+00
39 1 1.1566348214510001e+01 1.2152362472889999e+00 5.2619443180590002e+00
40 1 3.7917211555460000e+00 1.5808136707190000e+01 7.6353684503489996e+00
41 1 1.4593657172360000e+01 5.9023333740070001e+00 9.8000504595730007e+00
42 1 1.1356663650610001e+01 3.7336711129219999e+00 2.1392829949890002e+00
43 1 7.7105002879480002e+00 6.7535109516990000e+00 3.8291490291970001e+00
44 1 1.1015521963270000e+01 9.8071066083300007e+00 9.3192691370560006e+00
45 1 1.0238401406670000e+01 3.3786732672999999e+00 1.0202543397290000e+01
46 1 9.5411343955610004e+00 1.5667707900800000e+01 1.1211415297760000e+01
47 1 1.4755567868589999e+01 1.4107470856650000e+01 9.9915171558499996e+00
48 1 1.4640246453360000e+01 1.4051857329670000e+01 1.4257083013100001e+01
49 1 5.2972647858360000e+00 4.1801294683750001e+00 6.7033244228770004e+00
50 1 1.2153059000050000e+01 7.5352955975459999e+00 3.9992108827599999e+00
51 1 4.5489755992519996e+00 2.7438469771700000e+00 1.0508684795870000e+01
52 1 8.3736394767619995e+00 1.2804028899740000e+01 1.4940668906280001e+01
53 1 9.0311260429309996e+00 9.5648409687249991e+00 5.6035603841689996e+00
54 1 1.1787559019580000e+01 1.2638981877590000e+01 1.1974556474120000e+01
55 1 2.1697308477320001e+00 2.8340590628140001e+00 1.6324267662630000e+01
56 1 8.8594216079240002e+00 5.8865169899890004e+00 1.2262162215909999e+01
57 1 9.5041012183539997e-01 1.5770855581950000e+01 4.2072031379329999e-01
58 1 1.4598895858590000e+01 9.7522415983449999e+00 1.5631948132080000e+01
59 1 8.4733908564329994e+00 7.2944719111930001e-01 1.3642380089999999e+00
60 1 1.6069450060889999e+01 2.5425728246490000e+00 2.6576870321350001e+00
61 1 6.2632741661460001e+00 1.0334660588880000e+01 1.5088905725629999e+01
62 1 6.0632587070649997e+00 1.4610044887810000e+01 3.6125954520839998e+00
63 1 1.5632289164710000e+01 1.0581176517269999e+00 6.2055710882010002e+00
64 1 1.0591591994830001e+01 1.2975878977540001e+01 3.8011259596850002e+00
65 2 2.4372657724050000e+00 1.0139993331190000e+01 1.2081105291480000e+01
66 2 1.3267517336870001e+00 8.0991210812409999e+00 1.1909802204040000e+01
67 2 2.8090539106020000e+00 7.2628589989060002e+00 1.5282136307200000e+01
68 2 9.3395970907670001e-01 8.6004966324820007e+00 1.4865283754000000e+01
69 2 9.6335314264080001e+00 9.4839664315320000e+00 2.2408108584100002e+00
70 2 1.0846635867160000e+01 8.6937351778489997e+00 3.2203545967309999e-01
71 2 8.8541274168160000e-01 5.0860956168550002e+00 1.4526275075990000e+01
72 2 1.8385624436790000e+00 4.4029436916110001e+00 1.2487204825570000e+01
73 2 1.2575849554710000e+01 1.2680920416970000e+01 6.8743519641049999e-01
74 2 1.1034255722219999e+01 1.4465443634470001e+01 6.2101004654240000e-01
75 2 4.2229924944040000e+00 1.2275535520469999e+01 3.1762128659060002e-01
76 2 2.2420366961200000e+00 1.1200620323180001e+01 1.5739320030080000e+01
77 2 1.3898408992660000e+01 8.8634792775269999e-01 9.6531962158110005e+00
78 2 1.3876295278640001e+01 9.3339157126100003e-01 1.2003322115860000e+01
79 2 5.3644156661490001e+00 1.3930631299370001e+01 1.3324428290409999e+01
80 2 6.0299688149869999e+00 1.3817495892080000e+01 1.1055369891590001e+01
81 2 6.9035326320910002e+00 5.7763233892150001e-01 7.0439858838319998e+00
82 2 9.1266527326299993e+00 1.1349357930430000e+00 7.2853674645759998e+00
83 2 1.5420333552340001e+01 1.3044542414510000e+01 4.0283785225550002e+00
84 2 1.4255611521900001e+01 1.5050103008450000e+01 3.5913741692270000e+00
85 2 1.1411077733899999e+01 1.0852009072580000e+01 1.3762437137950000e+01
86 2 1.0258324450490001e+01 8.8358681758729993e+00 1.3356538502659999e+01
87 2 6.7393556214199997e+00 1.1456678957890000e+01 8.1724079466410000e+00
88 2 5.3338105057409999e+00 1.2561628483530001e+01 6.6543708539089996e+00
89 2 1.4627521690649999e+01 2.6498782499639999e+00 1.5150778310430001e+01
90 2 1.2785750025320000e+01 1.3834523571599999e+00 1.5848239575819999e+01
91 2 4.1858055275719996e+00 5.4898483316620004e+00 1.3535591753020000e+01
92 2 5.0101503080410001e+00 7.5634939077640002e+00 1.2937432241350001e+01
93 2 7.5944518469910003e+00 3.8573324863549998e+00 2.4876169089759999e+00
94 2 7.5069526438259997e+00 3.0353473120149999e+00 4.6591881026250004e+00
95 2 4.1609868971429997e-01 9.6624895350869995e+00 4.8386206353050003e+00
96 2 -2.1698178880360000e-01 9.7373970023939993e+00 2.6008547970730000e+00
97 2 4.4999100426850003e+00 1.3731562793759999e+00 3.5940486963640002e+00
98 2 2.4665817054649999e+00 2.5808593065210000e-01 3.7803677073360000e+00
99 2 1.7363869806300001e+00 1.2518680764539999e+01 8.5522589347039997e+00
100 2 3.7558002546210001e+00 1.1681962207160000e+01 9.3997883270920006e+00
101 2 9.9894523137560007e+00 2.1366020941809998e+00 1.5382606403600001e+01
102 2 1.0506707934260000e+01 2.2148946288059999e+00 1.3159102610970001e+01
103 2 1.8521010187970000e+00 5.8440856768970004e+00 3.6421101875740001e+00
104 2 1.0718676319120000e+00 6.1427474194400000e+00 5.9027095589179996e+00
105 2 6.4382053043180001e+00 7.6330599550120004e-01 1.3709263536550001e+01
106 2 4.8934523047229996e+00 5.6184641594740004e-01 1.5502517712410000e+01
107 2 2.6009498495369998e+00 1.5728209360099999e+01 1.2718429741370000e+01
108 2 1.0703694821080001e+00 4.4247623352900001e-01 1.1217930363190000e+01
109 2 -2.1544677809650001e-01 9.0269221735019993e+00 8.5482256727100001e+00
110 2 1.4504568784410001e+01 8.0599634854320001e+00 6.9514817230389996e+00
111 2 1.2552155105020001e+01 4.7138475062840000e+00 1.3632600004660000e+01
112 2 1.3143380149340000e+01 6.9787636074610004e+00 1.3905213789719999e+01
113 2 9.0241414028939992e+00 1.4249499568179999e+01 7.3385270629860004e+00
114 2 1.1222819962120001e+01 1.3644862178750000e+01 7.8218111456499999e+00
115 2 6.0080481986710002e+00 9.6944329945349992e+00 1.0940675302580001e+01
116 2 8.2687725342080007e+00 9.8142056196540004e+00 1.1477168756890000e+01
117 2 7.0136431959849999e+00 4.9259424542439998e+00 1.5391813641020001e+01
118 2 8.3619611026479994e+00 6.6227614516460003e+00 4.9633245660350003e-02
119 2 1.3829111982080001e+01 5.1541405789910000e+00 6.2808102568250002e+00
120 2 1.1762803809730000e+01 5.1468820524729999e+00 7.3697555819040002e+00
121 2 4.2849836545719997e+00 5.2202122421080004e+00 6.7934732976360002e-01
122 2 4.4039783473389997e+00 4.5490014516019999e+00 2.9329112639160000e+00
123 2 1.3926633024550000e+01 1.1031037359720001e+01 5.2626113256769997e+00
124 2 1.4215000107620000e+01 1.1843773726789999e+01 7.3871111652749999e+00
125 2 4.0683086539100000e+00 7.2402967912229999e+00 6.7337501572620004e+00
126 2 3.0610190500729999e+00 9.3219234884320006e+00 6.2256273970429996e+00
127 2 2.4427877377340002e+00 1.1967861552950000e+01 3.7835665478779998e+00
128 2 1.8932673963130000e+00 1.3116023375739999e+01 5.6985393139160001e+00
129 2 7.7069130174000000e-01 3.7442761165570002e+00 7.5074679184840001e+00
130 2 2.3316708738620000e+00 4.8163634292320001e+00 8.8985207196600005e+00
131 2 7.6896696830259996e+00 7.5395534131590001e+00 8.6514241119609991e+00
132 2 5.8511392605679999e+00 6.1176843411339998e+00 8.8443154465710005e+00
133 2 1.4358391240990001e+01 8.7417218753149992e+00 1.1567354438070000e+01
134 2 1.5164861871939999e+01 1.0873899406540000e+01 1.0967308331570001e+01
135 2 2.7786791351420002e+00 8.5968692976890004e+00 1.5271265715630000e+00
136 2 4.2357288788379996e+00 7.6285692132290004e+00 3.0647493191000001e+00
137 2 1.4694925010220000e+01 5.9257906690529998e+00 3.1460690924770001e+00
138 2 1.5462461840470000e+01 5.7593799135439996e+00 9.4471394231660000e-01
139 2 7.5367069056889999e+00 1.1817508192489999e+01 2.6282970592880002e+00
140 2 6.0549352409889998e+00 1.0030161136569999e+01 2.2202595947589998e+00
141 2 1.1572350053239999e+01 1.3578081323339999e-01 5.6693623563209998e+00
142 2 1.1714671633829999e+01 2.3176891393790000e+00 4.8847747829490000e+00
143 2 3.9420307973609998e+00 -6.5229199029760002e-02 6.5099225006339996e+00
144 2 3.5245776621560001e+00 1.5307277358970000e+01 8.6370141228030004e+00
145 2 1.3439989686130000e+01 6.0432202334670002e+00 9.6215136843630003e+00
146 2 1.5736488530410000e+01 5.7653963418089997e+00 9.9266675645699998e+00
147 2 1.2098425987500001e+01 2.9001509681119999e+00 1.8878211404580001e+00
148 2 1.0586505850089999e+01 4.6207318410850000e+00 2.3514910013999999e+00
149 2 8.1459105623750006e+00 6.1495905471850003e+00 4.7072461315130001e+00
150 2 7.2430503356560001e+00 7.4208974468160003e+00 3.0001100832740000e+00
151 2 1.1935661990270001e+01 9.2106606008200007e+00 9.7516906979269997e+00
152 2 1.0256792789220000e+01 1.0420418150960000e+01 8.6715261161439994e+00
153 2 1.0297903828400001e+01 2.2207615305939998e+00 1.0028313322580001e+01
154 2 1.0250913296980000e+01 4.5502578190780003e+00 1.0359446566130000e+01
155 2 1.0511967087790000e+01 1.5910743523850000e+01 1.0565259834720001e+01
156 2 8.5533865162749994e+00 1.5563951254659999e+01 1.1811652927600001e+01
157 2 1.4833395294260001e+01 1.4055427482930000e+01 8.8486850370530004e+00
158 2 1.4813890038589999e+01 1.4217124730589999e+01 1.1167762030340000e+01
159 2 1.3758213030329999e+01 1.4741651787469999e+01 1.4614596784110001e+01
160 2 1.5535224335390000e+01 1.3391379589700000e+01 1.3809928668320000e+01
161 2 4.9767926793210000e+00 4.8519374687249996e+00 5.7904613114780004e+00
162 2 5.6531582585300004e+00 3.5789065197430001e+00 7.6777639331270002e+00
163 2 1.2750820256920001e+01 8.4821706077560002e+00 3.6321535767830002e+00
164 2 1.1516128106060000e+01 6.7022378949380004e+00 4.4970641643210003e+00
165 2 3.8721042935050001e+00 2.1219502866409998e+00 9.7921167027720006e+00
166 2 5.4053668318700003e+00 3.2752093850619999e+00 1.1127353601139999e+01
167 2 8.8350773915400005e+00 1.2537565738600000e+01 1.3912443919199999e+01
168 2 8.0079842420160006e+00 1.3107467108340000e+01 1.6050625739009998e+01
169 2 1.0104346962919999e+01 9.3503723724970005e+00 6.0739315891069996e+00
170 2 7.9541583833670000e+00 9.7528268391330002e+00 5.1988986794630003e+00
171 2 1.1145988235870000e+01 1.3326954559390000e+01 1.2679555065550000e+01
172 2 1.2542288995330001e+01 1.1990099259610000e+01 1.1280383697430000e+01
173 2 2.3601803933859999e+00 2.8877971657549999e+00 1.5164588150240000e+01
174 2 2.0548547658390000e+00 2.6333607108039998e+00 1.2778084082700001e+00
175 2 9.1321954191519996e+00 5.2999887965030004e+00 1.3241614104200000e+01
176 2 8.6109657644950008e+00 6.4362263653419998e+00 1.1243073675510001e+01
177 2 1.5813426173299999e-01 1.7881725416790001e-01 1.5982045062559999e+01
178 2 1.7819792492350000e+00 1.5198978282240001e+01 1.1030950266040001e+00
179 2 1.4344412833640000e+01 8.9069786585230002e+00 1.6401321995600000e+01
180 2 1.4762224412389999e+01 1.0640479287240000e+01 1.4916566975060000e+01
181 2 7.7564281356790001e+00 1.6423942151700000e+01 5.5657020491279996e-01
182 2 9.2455223759980001e+00 1.2124098324610000e+00 2.0954614923279999e+00
183 2 1.6552936370339999e+01 3.4804503932230002e+00 3.2091209253640001e+00
184 2 1.5528389714199999e+01 1.6519663284080000e+00 2.1099712549100000e+00
185 2 7.2121572534630003e+00 9.9863332139759997e+00 1.5686142424210001e+01
186 2 5.3246481761639997e+00 1.0534773209350000e+01 1.4407940964850001e+01
187 2 4.9209406364630004e+00 1.4354806201670000e+01 3.4407490815330002e+00
188 2 7.2243223082650001e+00 1.4829520925980001e+01 3.6811790490320000e+00
189 2 3.4230443580769998e-01 3.2306748942690000e-01 6.3289780854469999e+00
190 2 1.4676634356670000e+01 1.7062493600430000e+00 6.1325824536919997e+00
191 2 1.0310550912640000e+01 1.1881414939900001e+01 4.1004437339309998e+00
192 2 1.0846959407720000e+01 1.4068523858290000e+01 3.5373568157770001e+00

Velocities

1 3.3401889282090003e-01 1.4140954787680000e+00 5.9193442555680003e+00
2 4.4177551781510003e+00 4.4125441871810001e+00 -4.1977490272550000e+00
3 -6.3607158564319999e+00 -8.9927302847600004e+00 -2.2434303217120002e+00
4 2.3416011620410000e+00 6.8844649664739999e+00 -2.2757045402789999e+00
5 -6.0868741333849998e+00 -6.5504907004210002e+00 -3.8634124573099999e+00
6 3.7747355276649999e+00 -2.6055690489490000e+00 -1.5418873659970000e+00
7 -3.2691508743500002e+00 2.1122049901750000e+00 -1.4918982654610000e+01
8 -6.6416812220899999e+00 -1.2806427313200000e-01 -2.2046824390560000e+00
9 1.0704920830400000e+00 1.2262918266920000e+00 -2.7976433950859998e+00
10 -4.0971619792079998e+00 2.4126550897339998e+00 5.9604719121890000e+00
11 4.0548230051680001e-01 -5.4154040177439999e-01 -6.0453939633630005e-01
12 -1.3659151070549999e-01 -5.8426350440899997e+00 2.1016731988970001e+00
13 -8.3871228687529997e-01 -4.9189433982419999e+00 -5.3718789613400002e+00
14 -7.6003719827530003e-01 4.9313352525790002e+00 -2.3101113480320001e+00
15 -5.4943479280550003e+00 -6.4185627296579995e-01 -8.5305800776959995e-01
16 -1.0609619713830000e+01 -3.8279855372010001e+00 -2.6848771105070002e-01
17 2.4895042556620002e+00 -2.8076100884359998e+00 1.1650759649320000e-01
18 -8.2507615996060002e-01 -4.2502760344860002e+00 4.9299442056249996e+00
19 -1.4097981614339999e-01 -6.5869648885709999e+00 2.0088567288190000e+00
20 2.2286351288280001e-01 3.5463663893559998e+00 8.5171847018460001e-01
21 2.2020908291060000e+00 5.1819667416969999e+00 -6.4624680160979997e+00
22 -1.9940600686570000e+00 -9.5573927410049997e+00 5.5345227060689997e+00
23 -3.3253827761860002e+00 2.2253606832270001e+00 -2.0546522504130000e+00
24 7.4566783718660004e+00 3.8312909665310002e+00 4.2302351634169999e-01
25 3.6407309582859999e+00 3.4333741630720001e+00 -4.8267818690349999e+00
26 -4.4711117958709998e+00 -5.4369970170649999e+00 -6.7767387507760004e+00
27 7.8590475322150000e-01 -6.0578910330379996e+00 -1.0071456870090000e+01
28 5.0819326952360004e+00 -2.6138687527890001e+00 4.5565231133500000e-01
29 -2.0031232284699998e+00 1.9761139714900000e+00 -2.1237023684900000e+00
30 2.5243483760899998e+00 -2.9657709874629998e+00 1.0349039408170000e+01
31 6.8861662921909996e+00 2.6449577505130000e+00 2.1993454235110002e+00
32 -3.3636933625840002e+00 -9.9857111961199996e-01 2.6145068947670000e+00
33 1.1306103092399999e+00 1.4889593407459999e-02 -9.0571508542850001e+00
34 1.7668810708300000e+00 1.1006988967770001e+01 5.5017295964489996e+00
35 -5.9365128534269995e-01 2.2849762113850000e-01 -4.3835221077890002e-01
36 -5.9924163208829997e+00 9.3744399547860002e-01 3.2064228893159998e+00
37 9.1508772926119997e-01 5.9578411498780004e-01 -1.4764799955629999e+00
38 -9.2410563436539999e+00 1.8753145844640000e+00 -3.3852915009790001e+00
39 -3.5918425891219998e+00 1.5627931497049999e-01 1.0685169690980000e+01
40 -2.5647835418780002e-01 9.0583801327080005e-01 -2.9581881258570002e+00
41 4.6773199522739999e+00 -6.8922685127419996e+00 -4.5723701296310004e+00
42 -4.0793243374390000e+00 6.3343140861600000e+00 -1.4739958977010001e-01
43 8.2707967886070008e+00 -3.4588083292329999e+00 -3.6974746896549999e+00
44 -4.5555934954610000e-01 -2.1236907272619998e+00 -3.5324544022720001e+00
45 1.0985105199750000e+00 -2.4126955380920001e+00 1.0233314808499999e+01
46 7.7310112112139997e+00 7.7701025529879999e+00 -6.3043009596250004e+00
47 -3.8605468559050000e+00 4.0697780150040002e+00 2.4139884869579999e+00
48 -1.5367963299089999e+00 -4.1345341116789998e+00 -4.4799046528180000e+00
49 -4.5962525248550001e+00 1.7407413599110000e+00 4.7762725552340002e-04
50 -1.5437665875959999e-01 3.4915111908490002e+00 6.7820983437360001e+00
51 -4.8987711933789999e+00 -1.5770993565460000e+01 -1.8471129157380000e+00
52 5.1302255172029998e+00 9.0814103581149996e-01 5.1198384328510000e+00
53 -4.2013847756820004e+00 -1.0852785868799999e+00 -4.9657945646060000e+00
54 -6.4900843309710003e+00 1.8364577939890001e+00 -4.4304699704399999e+00
55 -5.0117555121450001e+00 2.9565120425629998e+00 1.6460616294849999e+00
56 -3.9686631005669999e+00 1.2309034084020001e+00 -5.8843285292220004e-01
57 5.5073171220960004e+00 -7.6164826648579997e-01 3.4098473492079999e+00
58 3.7844312544709999e+00 -4.8457897302440003e+00 7.6760303396150000e+00
59 6.8421078371790003e+00 3.8725571705020001e+00 -3.3268351787329999e+00
60 -2.1768258867329999e+00 1.9144345592300001e+00 -4.1400787855020003e+00
61 -5.1065735870650002e+00 5.7101336139349996e+00 -6.7213473204530005e-01
62 -6.2834541038750000e+00 2.3654207074630000e+00 2.1781136514880002e+00
63 -6.6967017352670002e+00 -6.5258281878910003e+00 1.4546051248370000e+00
64 -3.2364873652170001e+00 1.8210396476599999e+00 -4.1741825583790000e+00
65 1.0877407305719999e+00 -1.4504282585740000e+00 6.8758015575110001e+00
66 -3.3716219681399999e+00 -1.8899260801119999e+00 7.4141047026829998e+00
67 2.3216375243390002e+00 1.8577499061530001e+00 -1.8475404341480001e-01
68 1.2703768227309999e+00 3.8623342824279998e+00 -2.5135082354070000e+00
69 -1.5377578215459999e+00 3.7924934556190002e+00 -3.4453327643880001e+00
70 1.1926111660809999e+00 -5.4523075938850001e+00 -4.7527638726839996e+00
71 4.0861900422069999e+00 1.8064154161190000e+00 -2.2993314100780000e+00
72 -3.3197775212630001e+00 -4.2743988900190000e-01 -2.1856177572300001e-01
73 7.6344471037229999e-01 -3.9852012184469998e-01 8.3746955025820000e+00
74 -7.6117073535979998e+00 -2.6563581071289999e+00 1.0319662602070001e+00
75 8.1316253432629999e+00 -8.5682100980460003e+00 -2.5014939116210000e-01
76 -6.6803337497769997e+00 5.1205524055199998e+00 -4.8970361363629999e+00
77 -8.7351409712660005e-02 -1.9494169210100001e+00 -3.0128206251070000e+00
78 -9.0406767563010004e-01 -8.3952632575509991e+00 -8.7818610691100005e+00
79 1.1916914682560000e+00 -4.2606463420480001e+00 -2.6887404869060001e+00
80 -2.1495222273280001e+00 -1.8229737943069999e+00 2.7210356054900000e+00
81 7.2418609345779998e+00 1.4930480277570000e+00 2.3032094228740001e+00
82 3.2571946323300001e+00 5.3635416957760000e+00 3.9373591750469998e+00
83 2.9252545970710000e+00 3.2004218921300001e+00 7.8155175045169996e+00
84 6.1904296905170000e+00 -5.0653675914959999e-02 -4.2211337366930000e+00
85 2.2979588511390001e+00 -4.1529434143669999e+00 -2.5128420946430001e+00
86 -4.5383812723740000e+00 -3.3680816691190002e-01 -1.1109899979250000e+00
87 3.9174729446069998e+00 7.8805746110199998e-02 -7.5754615570150001e+00
88 -5.7960067608130004e+00 2.8134814156260002e+00 3.7839465213640000e-01
89 5.5060059119300000e+00 -3.2054523300610001e+00 1.2206125739330000e+00
90 -7.1425988717169997e-01 1.3558179232209999e+00 1.8505124136000000e+00
91 8.2764338364000001e-01 3.4657614725719998e+00 3.4794694113150002e+00
92 -9.8852441749410003e-01 -2.2128753985320002e+00 -1.7490626484130001e+00
93 -9.8736625379179999e-01 3.1233104783940002e-01 6.1867534437649996e-01
94 -5.2812517333009996e+00 -3.6010357336560000e-01 3.6314693931369999e+00
95 7.1775976249469997e-01 4.9534130478040002e+00 -5.7158072561140001e+00
96 -7.1818427486740000e-01 3.6690450008790001e+00 -4.7805871590760002e-01
97 -3.4472598914480002e+00 2.7754111364630001e+00 8.3657680954040003e-01
98 -3.5555775509040000e-01 1.9113802362210000e+00 1.8779840003740000e+00
99 -1.3531798117939999e+00 3.6160525137959998e+00 -2.1083819487500000e+00
100 -4.5585762400069996e+00 3.6910559024170002e+00 -5.4142770184220002e+00
101 1.5004924762209999e+00 -3.5125869613070000e+00 1.0850042798760000e+00
102 -4.0772509586380004e+00 -5.1782907658559996e+00 9.0632186629790001e-01
103 -3.8907048996290001e+00 -1.8239880121270000e+00 4.6873421223970002e+00
104 2.2295987194130000e+00 5.4164890497330003e+00 4.5423166687669996e+00
105 -2.3327165482229999e-02 -7.7613566257280002e+00 3.4122714095819999e+00
106 5.2901538401639998e+00 -1.8906590491799999e+00 -8.3005150441069997e-01
107 -5.3284140610889996e-01 -9.0899200474330000e-01 -5.1648856508029999e+00
108 -1.6750543833100000e+00 4.8842744419409998e+00 -2.1991693159789998e+00
109 -4.3330304619259996e+00 -1.5636254109520000e+00 7.1063934097499999e+00
110 -2.1041774840429999e+00 -4.8685106351789997e+00 -2.4501729023670000e+00
111 8.8747325684389999e-01 -2.5833065060600000e+00 -4.2406197419020000e+00
112 2.1237672822070000e+00 1.1750540950270001e+00 -1.6677290663930000e-01
113 -2.8694908747830001e+00 7.0541659665459999e+00 1.9721111660390001e-01
114 2.3683679651829999e+00 4.7324489942620002e-01 -3.4286156278269999e+00
115 4.1474392346670003e-01 4.2872096941680002e+00 9.0367944968709999e+00
116 1.1954097000060000e+00 -6.0329075789989997e+00 1.8122951260200000e+00
117 -8.2713248099890002e+00 3.3224121350670002e+00 4.3821176122220001e-01
118 4.7011664729120000e+00 -5.1001633830520001e+00 -2.4233422995380001e+00
119 -2.4721368431770001e+00 1.7791027114880001e-01 -3.4380235548639999e+00
120 1.0946416924659999e+01 2.4581470658239999e+00 7.4275497176049998e-01
121 1.4317875970600000e+00 -1.9444384923700000e+00 -3.4820739941059999e+00
122 3.8945655987229999e-01 -1.2634067552629999e+00 4.7543587640900000e+00
123 -8.4964941479870004e-01 2.2190791733599999e+00 -5.2939210519500000e+00
124 1.1655503882280001e+00 6.4709036221960003e-01 2.7962147789779999e+00
125 -8.8225647729739998e-01 1.0887658975150001e+00 5.1887002286590000e+00
126 2.5076595835240001e+00 2.5136909654070001e+00 6.1270452266989999e+00
127 -4.6699468244949998e+00 4.0908159541039997e-02 1.5025030091370001e-01
128 3.0068909273689998e-01 -1.5272688202610001e+00 -5.4849210715450001e+00
129 -3.8500464552799998e+00 -2.9886655982749999e+00 -6.8776799120849996e-01
130 4.9692195800520000e+00 6.4901000931580004e+00 7.3287722213240003e-01
131 -1.9032469541660000e+00 5.0967399423839999e-01 7.8980797125129998e+00
132 -8.3734239498050000e-01 -4.9097559823699999e-01 -8.6156216538209995e-01
133 8.5368804569259993e+00 -7.1562883790359999e+00 1.2594461642200001e+01
134 -3.8417417475160001e+00 -2.9512935074450000e+00 3.7473691145000001e+00
135 7.6660977681729996e+00 1.1619644178060000e+00 7.7836648994979996e+00
136 9.2837299271689999e-01 7.8808331478229998e-01 -5.3030600603579998e+00
137 2.5625455152560002e+00 5.9869982099110004e+00 7.5582227589340001e-01
138 3.0474019948710001e+00 -6.8408160311220001e-01 -1.4461089329779999e+00
139 5.2207175094989999e+00 -1.7861275546990001e+00 -1.2629410784160000e+00
140 2.1800130028589999e+00 3.5540660729410001e+00 4.9626059393239998e+00
141 6.2722442019819997e+00 -5.0704803014059996e+00 2.4148166910850000e+00
142 3.3967289199709998e+00 -3.1981882035200000e+00 1.3381978945840001e+00
143 2.4941500801909999e+00 -4.4725976573709998e+00 -3.9685156382300000e+00
144 3.4964398451880001e+00 2.8100939421119998e-02 -4.0871460486839997e+00
145 -3.8726542184500001e+00 -1.9582121648740001e+00 3.3561977648940000e-01
146 5.1205097563430000e+00 5.1149624007890004e+00 -5.2153439009260003e+00
147 4.4066669241549999e-01 -1.6898790949549999e-01 3.1802361224759998e+00
148 1.0065461485230001e+00 -6.9608229447690002e+00 1.8689901506939999e-01
149 -1.0122577586049999e+01 -5.8804934553810000e+00 2.5409076535750003e-01
150 -6.0453356332990005e-01 2.7705437754079998e-01 4.5620913120040001e+00
151 -2.8889453448840001e+00 4.2545790788420002e+00 4.8873237375990000e+00
152 2.6950758493250002e+00 -7.8527885495530003e-01 -1.0197342684630000e+01
153 -2.1163367288260000e+00 1.4135773567550001e+00 -6.7927959723800004e+00
154 2.9266601092530000e+00 5.8011168987880000e+00 1.0629780922609999e+00
155 -6.7955035878589998e+00 5.5069263516129996e-01 -2.0196058966080002e+00
156 -4.0804434788939998e+00 -1.6956062592350001e+00 7.8940174851700000e+00
157 4.3622518386879999e-01 6.5381002307370002e+00 1.4756946787930001e+00
158 1.3655546393890000e-01 4.2291297694040004e+00 1.0135196325540000e-01
159 1.4667883609370000e+00 -2.5004904811949999e+00 -1.5182085801459999e+00
160 -2.3078969856830001e+00 1.8459366726490001e+00 5.4092010461749995e-01
161 3.5648360780780002e+00 3.5456840141730002e+00 -2.3682495340649998e+00
162 -2.6186844935650000e-01 -1.7514954344880000e+00 -5.3471413121430000e-01
163 -7.7041017075350000e+00 1.5194859712930000e+00 -3.6968771275520002e-01
164 -1.4202838231990000e-01 3.0172620558909999e+00 -4.0201451503870000e+00
165 -2.1826987398509998e+00 -1.6942633306079999e-01 1.9847646330140001e+00
166 5.8838336050409996e+00 -2.6364620127029998e+00 -4.5051561546780000e-01
167 -4.0254833222880002e+00 -1.2988131267040000e+00 1.3739257747500000e+00
168 1.0016871636719999e+00 8.5756138612260002e-01 -3.1728354907499998e+00
169 1.0466791519509999e+00 5.4115509305570004e+00 -3.0873203858839999e+00
170 5.7665674989019999e+00 3.6719722862070001e+00 2.2786627531160000e-01
171 -1.7082442678470000e+00 -2.4238342822270001e-01 -3.8493032351409999e+00
172 3.2752509500510002e-01 3.8700805603439998e+00 -1.0614147868560000e+00
173 2.8325169451190000e+00 -1.1918218069890001e+00 2.4526660943529999e+00
174 -2.1661848694280000e-01 -1.1626246407949999e+01 4.6208179479759998e-01
175 -2.0387742716810000e+00 -2.5612114079710002e-01 4.8338142943360003e+00
176 7.6797747919250003e+00 -3.3548985789499999e+00 -5.3390725773500003e-01
177 -3.0433335914230000e+00 -2.3245084646290000e+00 4.5308019553910004e+00
178 -6.1872051918680002e+00 2.4942767792570000e+00 4.3870256846559998e+00
179 4.1314328781810001e+00 5.4042391342640004e+00 4.0644858112020001e+00
180 -3.0926200849829999e+00 5.9333913222839998e+00 -1.8719349496219999e+00
181 -1.0740714137109999e+00 1.9395400003240000e+00 -6.2183589623230000e-02
182 9.4536037100839998e+00 1.1350354888130001e+00 2.1482876334799998e+00
183 5.3704485441710004e+00 2.6538597834369998e-01 -1.3469085195570001e+00
184 5.4306815672580004e+00 1.1435091473650001e+00 -2.3402360557969999e+00
185 -6.5689240835470004e+00 -5.3015856566160000e+00 2.3037228546430000e+00
186 1.1196057446620000e+00 3.6011483024499999e+00 -7.7457319561030002e-01
187 -2.1474030601290002e+00 -4.2687104254139996e+00 -2.7858083599910000e+00
188 -4.0510575634999997e+00 1.6384117705029999e+00 -2.6478964940759999e+00
189 5.8953160720750004e+00 7.8844646842949997e+00 -1.0396066638160000e+00
190 4.4170867615410003e+00 1.2463650504600000e-01 2.2030343345020000e+00
191 -6.4658325900159996e-01 -2.4401744322660002e+00 -1.2454461831290000e+00
192 -6.6786392500320002e-01 -2.2178212368870001e+00 1.5661680907780000e+00
