LAMMPS data file extracted from NVT dump, timestep 220000, units metal

192 atoms
2 atom types

0.0000000000000000e+00 1.6195563468200000e+01 xlo xhi
0.0000000000000000e+00 1.6195563468200000e+01 ylo yhi
0.0000000000000000e+00 1.6195563468200000e+01 zlo zhi

Masses

1 12.00000000
2 16.00000000

Atoms # atomic

1 1 1.5583188802400000e+01 1.7684812205010001e+00 5.5287423341919995e-01
2 1 8.1004702870489993e+00 3.9607807980229999e+00 4.8685864038500002e+00
3 1 7.5156590560409997e+00 3.7795316140619999e+00 8.9440611012239994e+00
4 1 3.0024047246790002e+00 7.9179183603260004e+00 6.8078571744970002e+00
5 1 1.0721290585700000e+01 5.7845284642290000e+00 2.8937366830250002e+00
6 1 4.4253450314100001e-01 8.4958934089289997e+00 1.5026076456569999e+01
7 1 1.5345862106349999e+01 5.2519662708499997e+00 1.0009661984770000e+01
8 1 9.2503662700639993e+00 9.6902309582940003e+00 1.1861660413510000e+00
9 1 1.1987126786110000e+01 7.3043490099230004e+00 1.5562869617620001e+01
10 1 1.4472774935220000e+01 1.5982786589619999e+00 4.9130263978839999e+00
11 1 9.8464859734579999e+00 8.6213683618129995e+00 1.0986937032800000e+01
12 1 6.9321059598810004e+00 2.0305200197970001e+00 1.8596037565110000e+00
13 1 9.1583925191550009e+00 1.4213983180690001e+01 1.5056358517430000e+00
14 1 2.2147463523190000e-01 1.4513071958419999e+01 7.0156299785989997e+00
15 1 6.7069378504359998e+00 7.4586124385929997e+00 8.2285367724270007e+00
16 1 5.7251260977760001e+00 1.5768652467740001e+01 7.2786676378969997e+00
17 1 2.9721673998289999e-01 1.0586983515380000e+01 1.0606237272740000e+01
18 1 1.4704448259030000e+01 1.4233447471550000e+00 9.1060571489680004e+00
19 1 1.4440749780040001e+01 5.6575410943920001e+00 3.2147044655279999e+00
20 1 5.9806772072470000e+00 9.9060715234779995e+00 1.6108550368860001e+01
21 1 2.7745104831470000e+00 5.6864068431170001e+00 1.5789689676009999e+01
22 1 2.8864893345290001e+00 1.0218076207570000e+01 2.6938509892029998e+00
23 1 1.4234060062959999e+01 1.4234615384250001e+01 9.1958191538950000e+00
24 1 1.3230746200090000e+01 3.0243938723040000e+00 1.4234812835170001e+01
25 1 3.8144299299190001e+00 1.4901303241760001e+01 4.7831032376909999e+00
26 1 1.1318577192850000e+01 1.3746771856380001e+01 1.5032183045920000e+01
27 1 1.0607472269840001e+01 2.6848864985829999e+00 6.9406466275780003e+00
28 1 4.5317420008039999e+00 3.6540696635850001e+00 6.5941366855589996e+00
29 1 2.5305339121529999e+00 1.4002002743529999e+01 1.0524238084129999e+01
30 1 1.5992420230260000e+01 9.2497063606140006e+00 5.8487597998179996e+00
31 1 8.4314859731809992e+00 1.6018392048949998e+01 4.3854439814050004e+00
32 1 6.2729829170610003e+00 1.4881178923609999e+01 1.6185221484720000e+01
33 1 8.4775250772110002e+00 1.0405862810109999e+01 1.3697951911120001e+01
34 1 1.0428010809460000e+01 7.3746238655849998e+00 7.1445105712109997e+00
35 1 1.6074935789380000e+01 1.3659173515230000e+01 3.8689911607270000e+00
36 1 2.7002769717840001e+00 4.8451306115200001e+00 1.0319831541499999e+01
37 1 1.3270086279579999e+01 8.9321168830039994e+00 8.7152161471829999e+00
38 1 5.4718331198119996e+00 1.1878875087900000e+00 1.1189238925090001e+01
39 1 1.5992859118080000e+01 1.2545509735880000e+01 1.5185111098429999e+01
40 1 7.0441470018799999e+00 8.2030354845439994e+00 4.2943927103660000e+00
41 1 5.7685284243419996e+00 1.3530043301890000e+01 1.2591151634710000e+01
42 1 3.9701532661629999e+00 9.2307181918609995e+00 1.2134809110759999e+01
43 1 2.8572947297739999e+00 6.0913328520550003e+00 3.5378649051259998e+00
44 1 1.6587559741750000e+00 3.5104409320599999e+00 1.3158231990459999e+01
45 1 1.1636890862300000e+01 4.2476046719870002e+00 1.0889257562879999e+01
46 1 1.4614119670019999e+01 1.0699021119090000e+01 1.9584119587250000e+00
47 1 1.0866526101110000e-01 1.6114831609490000e+01 1.3310480241040000e+01
48 1 8.9641162010720006e+00 2.5729821338019998e+00 1.4277978878340001e+01
49 1 8.0757989544520008e+00 1.3548264299320000e+01 9.9837522721559999e+00
50 1 1.2318038437069999e+01 1.1509316596920000e+01 1.1871626810270000e+01
51 1 1.3582672118620000e+01 1.4705058388790000e+01 1.5417598138569999e+00
52 1 7.6365644327990001e+00 6.4318392625709997e+00 1.4217785339560001e+01
53 1 6.5926603389169998e+00 5.5394265033370003e+00 2.0128370165030001e+00
54 1 1.1098599454610000e+01 1.4568778822560000e+00 1.5703767736600001e+00
55 1 2.4012996294100000e+00 2.0785561437300002e+00 3.0898344415870000e+00
56 1 2.7784007563999999e+00 1.5587358544540001e+01 6.9526611335569999e-01
57 1 9.6188407118619992e+00 8.4353938306789999e-01 1.0100833253479999e+01
58 1 4.3092514369690003e+00 1.1201555017550000e+01 7.2364593253180001e+00
59 1 1.2286226507740000e+01 1.5378717013270000e+01 1.1790445986470001e+01
60 1 1.2739913726410000e+01 1.1832682442530000e+01 5.6720928621219997e+00
61 1 6.4304849422889996e+00 1.2523056181799999e+01 3.6076987496839998e+00
62 1 1.0008639424550001e+00 4.3663933592359996e+00 6.6314431166060004e+00
63 1 1.4044149011549999e+01 7.4390005401149999e+00 1.2591962003750000e+01
64 1 8.6813524704699994e+00 1.2472635284700001e+01 6.1512139129370000e+00
65 2 5.5592973504870002e-01 1.8093625142600001e+00 4.8995192729949999e-01
66 2 1.4394550369770000e+01 1.7295881266599999e+00 5.9851611496640000e-01
67 2 7.0386596812990003e+00 3.4491628494860000e+00 4.6934535802910000e+00
68 2 9.1695516023420005e+00 4.4742698999700004e+00 4.9773660394440000e+00
69 2 7.8818265945980004e+00 4.2659808689660004e+00 9.9595616265669999e+00
70 2 7.1558695758640001e+00 3.2719784348770000e+00 7.9840060537220001e+00
71 2 3.1689734116960002e+00 8.2975788133229997e+00 5.7046268970850003e+00
72 2 2.7533728215819999e+00 7.6634724538369996e+00 7.9103440107129996e+00
73 2 1.0875334061589999e+01 4.7483525320859998e+00 2.3543598172390001e+00
74 2 1.0620844437400001e+01 6.7350997706519999e+00 3.5948877706990001e+00
75 2 1.0719584229750001e+00 9.3767836473290007e+00 1.4638145374280001e+01
76 2 1.6027279946739998e+01 7.5571887085079998e+00 1.5491022098009999e+01
77 2 7.7142565469859994e-02 5.9527214683479999e+00 1.0041729778270000e+01
78 2 1.4490016784680000e+01 4.4389149441300004e+00 9.9001284493319996e+00
79 2 8.6927096875120000e+00 9.3593649933209999e+00 2.1553060023759998e+00
80 2 9.7627122667599995e+00 1.0043343585080001e+01 1.9622767621880000e-01
81 2 1.1822128349690001e+01 6.7014174661389996e+00 3.7686104986890001e-01
82 2 1.2141964546060001e+01 7.7505243999799998e+00 1.4533966074449999e+01
83 2 1.5028101462010000e+01 1.8127878167570000e+00 5.9231499125629998e+00
84 2 1.4032160244070001e+01 1.3462123494260001e+00 3.8733484220099998e+00
85 2 8.7160935343889996e+00 8.9489798880620004e+00 1.1032447285900000e+01
86 2 1.1010444656120001e+01 8.4342614295179992e+00 1.1017250982060000e+01
87 2 7.7157012892330004e+00 2.8879955042400001e+00 1.8996296729790001e+00
88 2 6.1453738959330000e+00 1.1524274084040000e+00 1.8201658404059999e+00
89 2 8.9754951691610003e+00 1.3149893095460000e+01 1.9572180439869999e+00
90 2 9.3958847516430009e+00 1.5259847749910000e+01 1.0423227973380000e+00
91 2 1.5581872570700000e+01 1.5341212580540001e+01 7.2355917838319996e+00
92 2 9.6683353191679999e-01 1.3631828177699999e+01 6.7164242271579999e+00
93 2 7.3394802339209999e+00 6.4486909846560003e+00 8.3808180879939993e+00
94 2 6.1000485234450004e+00 8.4810757388470002e+00 8.0814681986409997e+00
95 2 4.8764934112939997e+00 1.4985420374269999e+01 7.2325797719880001e+00
96 2 6.5992851961080001e+00 3.6703481983830000e-01 7.3370683418220004e+00
97 2 2.8303937760800002e-01 9.9286203570640001e+00 9.6315887158169993e+00
98 2 3.4000237604360001e-01 1.1247844207340000e+01 1.1567990728010001e+01
99 2 1.3553911559720000e+01 1.5087028009210000e+00 8.7603236663480004e+00
100 2 1.5775852098030001e+01 1.3845758276880000e+00 9.4933952094429994e+00
101 2 1.5188822146420000e+01 4.8931632569449999e+00 3.7168328181530002e+00
102 2 1.3672887640330000e+01 6.2779379979450001e+00 2.5740472532959999e+00
103 2 5.6480498400799997e+00 8.8483567979770008e+00 2.6184216592199999e-01
104 2 6.2264568049909998e+00 1.1040003489189999e+01 1.5901379859520000e+01
105 2 2.4357671355239998e+00 4.6673712505660001e+00 1.6214967271910002e+01
106 2 3.1278230633509998e+00 6.7864081545479999e+00 1.5423168190589999e+01
107 2 2.0578564560950001e+00 9.5734373032620006e+00 3.2344372484060000e+00
108 2 3.5727894126840001e+00 1.0867193759179999e+01 1.9769724225590000e+00
109 2 1.3191743777970000e+01 1.4728952273100001e+01 9.0483021028269999e+00
110 2 1.5271263088000000e+01 1.3717634540320001e+01 9.4712629266640000e+00
111 2 1.3004958426829999e+01 3.9057556574480001e+00 1.4954055563330000e+01
112 2 1.3455337715110000e+01 2.0234019714309999e+00 1.3591776717349999e+01
113 2 4.1888612714890003e+00 1.6042218955530000e+01 4.8734399715230001e+00
114 2 3.3625236576600002e+00 1.3834292135209999e+01 4.6056560005809999e+00
115 2 1.2334606223070001e+01 1.4236031921860000e+01 1.4713231162450001e+01
116 2 1.0259808260670001e+01 1.3293137268000001e+01 1.5276208710130000e+01
117 2 1.0559094796000000e+01 3.2077882825800001e+00 7.9767222629569998e+00
118 2 1.0749329366330000e+01 2.1591543807029998e+00 5.9044898687630001e+00
119 2 4.4990900544169996e+00 4.8345535280899998e+00 6.6266540410849997e+00
120 2 4.6284058292479999e+00 2.4986148099599998e+00 6.5055533688210003e+00
121 2 2.5535046250600000e+00 1.2817369540480000e+01 1.0356383234130000e+01
122 2 2.5326980139790001e+00 1.5146696494670000e+01 1.0697120508279999e+01
123 2 1.6147702055600000e+01 8.2101486814799998e+00 5.3442151139679996e+00
124 2 1.5807886788330000e+01 1.0310608424310001e+01 6.3637606142959999e+00
125 2 7.5870568516930001e+00 6.3428604555690005e-01 4.4482686136840002e+00
126 2 9.3498377247220006e+00 1.5336662436130000e+01 4.4361956411260000e+00
127 2 6.2910716809149996e+00 1.4174537947179999e+01 9.1962548973600000e-01
128 2 6.3085798970509996e+00 1.5600795575459999e+01 1.5287564861140000e+01
129 2 8.0272881319580005e+00 9.3803376405980003e+00 1.3960612418709999e+01
130 2 8.9068200130289998e+00 1.1460632808250001e+01 1.3432770677190000e+01
131 2 9.9024471515420007e+00 8.4433972483870008e+00 7.1346907786080003e+00
132 2 1.0814862941099999e+01 6.2545134073610003e+00 7.1742344807400000e+00
133 2 1.5685573584340000e+01 1.2631414863200000e+01 4.0516375052490003e+00
134 2 3.3399417982890001e-01 1.4741201777850000e+01 3.7397025234310002e+00
135 2 2.7456352657090002e+00 4.0813946763860001e+00 9.4527499570159996e+00
136 2 2.6574271472510000e+00 5.6449541085870001e+00 1.1185175894740000e+01
137 2 1.2958234131959999e+01 8.6612233044769997e+00 7.5994901571630002e+00
138 2 1.3754408917790000e+01 9.1184017433890006e+00 9.7600499004770001e+00
139 2 6.0214787254399997e+00 5.4785604024199996e-01 1.1958700187480000e+01
140 2 4.7933363915599996e+00 1.8273112721230000e+00 1.0494509966500001e+01
141 2 5.3242787201529995e-01 1.3500231677170000e+01 1.5281569307660000e+01
142 2 1.5283626682940000e+01 1.1584710128110000e+01 1.5136144278470001e+01
143 2 7.8137122679560003e+00 8.3485369558699993e+00 5.1946062214289999e+00
144 2 6.2955203533140001e+00 7.9742508047850000e+00 3.4253164776950000e+00
145 2 6.8664456831329996e+00 1.3173048484830000e+01 1.2589207160930000e+01
146 2 4.6217832460619999e+00 1.3876703900830000e+01 1.2750567506550000e+01
147 2 2.9524805793350000e+00 9.5868948586790008e+00 1.1684411065190000e+01
148 2 5.0195285939290004e+00 8.8753226841610005e+00 1.2592791747670001e+01
149 2 3.6992446726980002e+00 5.4888739320219999e+00 4.0972685269170004e+00
150 2 1.9672704122189999e+00 6.4753148915069998e+00 2.8778436718420002e+00
151 2 2.3607030029259999e+00 2.6741320393660000e+00 1.2747716410190000e+01
152 2 7.8033904630179995e-01 4.2272164070420004e+00 1.3460403281340000e+01
153 2 1.1814224869229999e+01 3.2907625964160001e+00 1.1528216930539999e+01
154 2 1.1356343245710001e+01 5.2073510979349997e+00 1.0264465429350000e+01
155 2 1.4329088465940000e+01 1.1708940464970000e+01 1.4115251108960001e+00
156 2 1.4711896824809999e+01 9.7040076912940005e+00 2.6054304063460001e+00
157 2 4.0030631309749998e-01 5.9634806066239998e-01 1.4214824124820000e+01
158 2 1.6145906150700000e+01 1.5340018116060000e+01 1.2446391695730000e+01
159 2 8.3622078669220006e+00 1.5930294138829999e+00 1.4211830864610000e+01
160 2 9.6146905195310008e+00 3.5669771178220002e+00 1.4221859311899999e+01
161 2 7.3337158229980002e+00 1.4471391638080000e+01 1.0007125204570000e+01
162 2 8.8177594954229992e+00 1.2642337325080000e+01 9.8517859371380005e+00
163 2 1.3109952349880000e+01 1.2075347502460000e+01 1.1191643348350000e+01
164 2 1.1574237599630001e+01 1.0946077729120001e+01 1.2575564513370001e+01
165 2 1.4658070043180000e+01 1.4823342945429999e+01 1.0586176131830001e+00
166 2 1.2545150735020000e+01 1.4520173706500000e+01 2.0285986001240000e+00
167 2 7.1413591644340002e+00 6.4301284426490000e+00 1.3174516997390000e+01
168 2 8.2237270668220006e+00 6.4032192659560003e+00 1.5234917095580000e+01
169 2 7.6722256889290001e+00 5.7934845159670001e+00 2.4061988673219998e+00
170 2 5.5935548947319997e+00 5.2272157492779998e+00 1.5017157884840000e+00
171 2 1.0892473436870000e+01 1.7146144206030001e+00 2.7134796990250001e+00
172 2 1.1413340992540000e+01 1.4192744351260000e+00 4.2359643263750002e-01
173 2 1.4898810370619999e+00 1.9978974986920000e+00 3.7983243549940000e+00
174 2 3.4033084856820000e+00 2.1595275031590000e+00 2.4813219167309999e+00
175 2 3.3901362439149998e+00 1.5793920646409999e+01 1.5928208616330000e+01
176 2 2.2066495944060001e+00 1.5449336697300000e+01 1.7283666869570000e+00
177 2 9.5050847503060005e+00 1.2667033879880001e+00 1.1195441816820001e+01
178 2 9.7322561494680002e+00 5.4032415880130003e-01 8.9711295296429991e+00
179 2 3.2990648005410002e+00 1.0952889327139999e+01 7.7965897079610000e+00
180 2 5.2714257231010002e+00 1.1547386748899999e+01 6.6418917942849998e+00
181 2 1.1521109314580000e+01 1.4462209572550000e+01 1.1784905198660001e+01
182 2 1.3095399179399999e+01 1.6219309624619999e+01 1.1567221293059999e+01
183 2 1.3358650689430000e+01 1.2463464261280000e+01 6.4918288525870000e+00
184 2 1.2233204602730000e+01 1.1119756539030000e+01 4.9020572470939996e+00
185 2 6.5673505017800000e+00 1.3685026574469999e+01 3.7046135301100001e+00
186 2 6.5054016673510002e+00 1.1369198874449999e+01 3.4419906003010001e+00
187 2 1.5965369871870001e+00 3.3887780535999998e+00 6.3738151601490003e+00
188 2 4.5472311575120000e-01 5.4383486898699998e+00 6.6581729652239998e+00
189 2 1.3493141206680001e+01 6.4668776362229998e+00 1.2246407804040000e+01
190 2 1.4616230975220001e+01 8.4288128498470005e+00 1.2794410307830001e+01
191 2 8.9898494351800000e+00 1.1780308722999999e+01 5.2712853742219998e+00
192 2 8.3310294751350007e+00 1.3218474691620001e+01 6.9948398163269996e+00

Velocities

1 7.6068190817460000e+00 4.5817244282770000e+00 1.3246879257449999e+00
2 9.1638538643319993e+00 3.8367151046010002e+00 7.2904059404819996e+00
3 -3.8641804237659998e+00 -7.6516931837689999e+00 2.4113864417770001e+00
4 -3.9518510365370001e+00 -1.1658843381690001e+00 4.5203922864230002e+00
5 -3.5595599332380001e-01 -2.4024984987539999e+00 -2.9494250449039998e+00
6 -7.5839643269769996e-01 -1.6702542303490001e-01 -2.6988743319720001e+00
7 -4.0730136506910002e+00 -2.8601428183280002e+00 4.2719389257520000e+00
8 -1.6651496128100001e+00 -5.5487235556339998e-01 -1.0412522594710000e+01
9 -1.3939663964589999e+00 -2.6177339696110002e-01 -6.6191445687139998e+00
10 6.0890377272520002e+00 3.3769849826499998e-02 5.8719594305219998e+00
11 -2.0138524695630000e+00 -1.0223268097030001e+00 -1.4097350760550000e+00
12 5.1803136384580002e+00 -7.5103767518810001e+00 -5.6561638478900000e-03
13 -8.2462822186990004e-01 -2.3465251849329999e-01 1.8770992709550001e+00
14 -2.6010086377219999e+00 -5.0397007400830001e+00 4.9902786367770000e+00
15 -5.6612145021340003e+00 6.1691238446870003e+00 8.9891525100770000e+00
16 7.9661321562830001e-01 -2.2555885896560000e+00 -2.0682017052560000e+00
17 9.5191511920629992e+00 1.6579425372970000e+00 9.2958384374570005e-02
18 1.0036736395949999e+00 7.2530453982790002e+00 -5.9246568333670000e+00
19 -3.0580570029729998e-01 1.9570076291530001e+00 -5.4092656886009998e+00
20 1.0600692862650000e-01 -1.1871985992179999e-01 4.0163261462650004e+00
21 -8.2376436107869999e+00 -2.6431330470250001e+00 1.3561765830040000e+00
22 -3.0990137501569999e+00 -4.9745989490250002e+00 -1.6705912228899999e+00
23 -7.0548460156720001e+00 -5.8356955834240001e+00 6.1918505584219998e+00
24 -9.9300884699820002e-01 -6.2035715144259997e+00 3.3940610840669998e+00
25 1.6327752142309999e+00 4.0637436137999998e+00 -5.4799304160619999e-01
26 -2.2545669990400001e+00 2.5749731776599999e-01 -1.0516454524759999e+00
27 1.6978316899999999e+00 -2.3153760888720001e+00 2.1072222699690002e+00
28 1.7647270642560000e+00 1.2407979504490001e+00 -6.7809711257130001e+00
29 -5.0331279523430004e+00 -2.8688965310699999e+00 4.7999848909010003e+00
30 5.8592517673610001e-01 -5.3771174322460000e+00 7.4335668111239999e+00
31 -3.6231777819219997e-02 4.6061396260810001e+00 -6.8807225029619996e+00
32 4.6185525504709997e+00 -6.0670802628420004e+00 2.9539327155250001e+00
33 9.4015367387600002e-01 4.2248485999199996e+00 6.9138272179240001e+00
34 -4.6599087111899999e+00 -4.7234237816859999e+00 4.5105807838220002e-01
35 2.3113481175819999e+00 -2.0522205809859999e+00 -8.2493231618219998e+00
36 -8.6730700784860004e-01 3.0453018540570000e+00 1.3150640518670000e+00
37 -3.7182495026289999e+00 -2.5448919849479998e+00 9.7158572479049994e+00
38 4.1168362062890003e+00 -3.5769262665069999e+00 -8.6148346853149995e+00
39 1.2286139143510000e+00 -8.9814507567320003e+00 -8.8797569147320008e+00
40 -1.7473041517300001e+00 -9.1282972402119995e+00 3.8508260375829999e+00
41 -4.6042068368990003e+00 -3.3790112541560000e+00 -8.8362945867029996e+00
42 3.2048836024330001e+00 1.0834194625100000e+01 -7.8969534150260001e+00
43 -7.7122277677079998e+00 -3.9723070250979999e+00 -6.8770438569390002e+00
44 2.5921624262509999e+00 2.5520036703220002e+00 7.8679403799610004e-01
45 -1.7548792002650000e+00 7.0248746414139998e+00 6.1425889014289998e+00
46 4.5158006840839997e+00 5.3730036876140002e+00 1.7300475540530000e+00
47 5.4360898020240001e+00 -4.9901309339670004e+00 8.3162783604610002e+00
48 1.7424253250240000e+00 6.3500752077670004e+00 -6.2160001250689998e+00
49 -1.7933488893409999e+00 2.7421913377070002e+00 -1.6127709823170000e+00
50 -2.7190242763630001e+00 9.9519520607250000e-02 -5.5529055888209999e+00
51 -2.5716842590239999e+00 4.4446373144360001e+00 -8.5664296584159992e-03
52 3.2880293595090002e+00 -2.6036880970050000e+00 -2.4659926901940001e+00
53 1.6716773302360000e+00 2.1711706668759998e+00 5.7389095623459996e+00
54 2.7986729934710000e+00 6.3988264713249998e-01 -6.1051150688540003e+00
55 -3.3836943993699999e+00 9.4886328398889996e-01 -7.9281639468860003e+00
56 -1.9609038703920001e+00 4.1401780758830000e+00 -1.1897849714169999e+00
57 -5.4097263088630001e+00 -6.2580122453820000e+00 -8.0017057483330003e+00
58 -1.4456178662540000e+00 -5.7995601510919998e+00 -2.8925569867570000e+00
59 -4.1711979198669997e+00 5.1183880202690002e+00 -5.7058407583699999e+00
60 -9.1487734352530001e+00 5.0957737352679997e+00 -5.8878314224889996e+00
61 -3.6578730267539998e+00 -4.6074251391600001e+00 1.2984712984390001e+00
62 -1.1090568608789999e+00 -2.5226705121019999e-01 5.5550490695110000e+00
63 2.8916393701740000e+00 2.5925839715010000e+00 -4.9445018543029997e+00
64 3.1119400343020001e+00 1.1246988866160001e+01 -1.4553545301980000e+00
65 4.4679259290830000e+00 -6.7721867316030000e+00 2.4946056735819999e+00
66 3.0917454819399999e+00 -3.9255181336520001e-01 1.4406832615150000e+00
67 -1.9755039623499999e+00 -1.6255899988239999e+00 -7.8222310600839995e-01
68 -5.6740253146209998e+00 3.8960385736030001e+00 -1.4704942475489999e+00
69 -5.4861706159360002e-01 3.0723209465669998e+00 -5.4114602948260000e+00
70 2.2369670284469998e+00 -1.1206184748650001e+00 3.0986358945410002e+00
71 -7.5851002837810000e-01 9.1650721047259998e-01 -1.8244649679460001e+00
72 -4.0036838415420002e+00 6.6458998591590002e-01 -7.4743234285939997e-01
73 3.0697913276560000e+00 8.0935766190119995e-01 2.7771202391270000e+00
74 3.0524151204719998e+00 -8.0150186951830005e-01 -2.0356826656179999e-01
75 -1.8766661236480000e+00 -5.0260639628280002e+00 -3.2236675503090000e+00
76 2.8668206852679998e+00 -9.2764480682869999e-01 6.3600727437640003e+00
77 -5.4128170637570001e+00 6.1963615562829999e-01 -7.1810865519940004e+00
78 -4.1398912229510003e+00 3.4514939951320001e+00 8.7725419975360008e+00
79 -1.3348072457370000e-01 1.4375911807520000e-01 -1.6192514590710001e+00
80 -3.4428976830760001e+00 -4.7226394048460003e+00 -5.5258610298970003e+00
81 2.2127520336959998e+00 5.2526547918639999e+00 -3.3036319736510000e+00
82 -6.9736018340920003e-01 6.0760659924620004e+00 -6.3932233808380001e+00
83 -3.7428134129249999e+00 2.9471000434910000e+00 8.8168393250190003e-01
84 6.0491691946449997e+00 -4.4905329170400003e+00 -5.5960986590750004e+00
85 -4.8795721088089999e-01 3.2928145225050001e+00 -1.4205055528020001e+00
86 -5.4920463994239999e-01 3.1671817003870002e+00 -4.4049958514009999e+00
87 8.4973644536070003e-01 1.3284976599160001e+00 -1.1228902383229999e+00
88 5.5706504114420001e+00 7.5787434715960000e-01 4.2043305706589997e+00
89 3.0170712365990000e+00 -8.3358331358920001e-01 -1.9990630464070001e+00
90 2.5841646464679999e+00 6.7728643765100003e+00 1.2022614834109999e+00
91 -7.4419877216079999e-01 -2.7470240690600001e+00 -1.7799749997829999e+00
92 -3.0071268939950002e+00 8.0995777297950000e-01 6.1011261566770003e-01
93 -9.5558893976829995e-01 8.1198793962819996e-02 -8.5223429729470002e-02
94 7.1545416739379997e+00 8.9196448312730003e-01 -4.8863588627760004e+00
95 -7.1802799482230002e+00 -1.8631298823570000e-01 -7.0837163523450002e+00
96 -3.0717160744209999e+00 -2.6853085839700003e-01 5.4387084675519999e+00
97 -3.7547492962650000e+00 2.7406594244050000e+00 1.4371547502510000e+00
98 -4.1846161946580002e-01 -7.3684086290980000e-01 -9.0902377087200004e-02
99 -1.0250750350490000e+01 -1.6849738681299999e+00 2.0772802332990001e+00
100 3.8084082201929998e+00 -3.8034519484499998e+00 6.2846947172220000e+00
101 -2.4491084038510000e-01 2.0761466638570001e+00 3.7940036487650000e+00
102 4.2890902604949996e+00 -5.6756381275869998e+00 1.7661226385130000e+00
103 -2.2987099910339999e+00 3.8810978133660001e-01 -3.5411431085229998e+00
104 -6.9558860406570000e+00 1.5933348630840001e+00 4.1377408576110000e+00
105 4.7821731762510000e-01 3.5135001617360002e+00 5.7423531097050002e+00
106 5.2618649877530004e+00 -8.3708394145800007e+00 -1.3073194306230000e+00
107 6.1641129325249997e+00 -2.1702787035350002e+00 2.6303312364979998e+00
108 -1.8141023032270001e+00 -2.9515855023180002e+00 2.6330199825220002e+00
109 3.1071943885950000e+00 4.5159800915720000e-01 -2.3367385550969999e+00
110 2.9216800720489999e+00 -2.1543728475449999e+00 -3.0439237834420001e+00
111 -4.0672525033760003e+00 -4.4792728611710002e+00 2.5784821869469998e+00
112 -5.1574332266790002e+00 3.4415234761570002e+00 8.1719102623209992e+00
113 -8.0740196013479995e-02 5.9556403777250004e+00 -5.4241592757749997e+00
114 5.1769439071959997e+00 -3.2157209826030000e+00 -3.3417827284760002e+00
115 -2.0936332731679999e+00 -3.3073075255819999e+00 5.2323033263400003e+00
116 1.8726590151860001e+00 -7.2350575581859999e+00 5.1176706780589996e+00
117 8.2250272519129997e-01 -6.8009542310680002e+00 -9.5818341866089995e-01
118 -9.0279545726440003e-01 5.4107763972349998e+00 4.0147622513950001e+00
119 2.2327205871609999e+00 7.6122038184130003e-01 2.8260385702309998e+00
120 1.9633210592079999e+00 1.5357551786410000e+00 -4.1059245353489997e+00
121 2.7635241974559999e+00 -2.4131219267609998e+00 -6.6015469458429998e-01
122 2.1012869894330000e+00 6.6654003660000001e+00 6.8946387012040002e+00
123 4.1805369619109998e+00 -1.4946941290610001e+00 1.5686980666829999e+00
124 -7.1438006693189999e+00 -6.3328829513639995e-01 8.1412883044689999e-01
125 -2.1435910015570001e+00 1.4224836999410000e+00 5.1880280096340003e-01
126 -6.5740502514259997e+00 4.3702454562480000e+00 2.8512717970020002e-01
127 4.0495523850759998e+00 3.8414525394990000e+00 3.4977461687680000e-01
128 -1.8099273699730001e+00 1.7707933924629999e+00 -3.2892891252649998e+00
129 -1.7831649099389999e+00 3.8819287852579998e+00 -2.2149605983080001e+00
130 1.9421579854680000e+00 -1.4537248066020001e+00 -2.9975332762760001e+00
131 5.4319866413830002e+00 1.6601138434280001e+00 9.1225761900600000e-01
132 5.7355355662510004e+00 -8.3798999610320002e-01 -4.0289519060190004e+00
133 -6.4201967399530002e-01 -2.9646978516189999e+00 3.2875245270539999e+00
134 -2.2267334014659999e+00 -2.3574164295590001e+00 -3.3381146727080000e+00
135 5.6904981789190003e+00 4.5458007222949997e+00 3.4703474665749998e+00
136 -2.7063335912589999e+00 2.3931831823010001e+00 -2.4424119402720001e+00
137 4.5412060057960000e+00 -4.1051341812900004e+00 -2.0147297817559999e+00
138 3.6995262840329999e+00 7.0340487695840004e+00 -5.8246974812439998e+00
139 -1.2826988913690001e+00 2.4793136269179999e-01 5.5797546910420004e-01
140 6.4413623184329998e+00 -3.0576610405709999e+00 -1.4344530532830000e+00
141 -3.6452099980839998e+00 -2.7835100267309998e+00 -1.5990808061240001e+00
142 3.8741805910270000e-01 -2.3121051993589998e+00 2.1486891734090001e+00
143 -3.6104303128409998e+00 2.4124960596370002e+00 1.7452307831470000e+00
144 1.6974062248480001e-01 2.6465187986460002e-02 -9.0280030791639998e+00
145 -4.3870598024729999e+00 -4.8064648688240004e+00 7.0044580257640003e+00
146 1.8817812797889999e+00 -2.8827767995430000e+00 1.3717956157410001e+00
147 -3.9251114002469998e+00 -3.5963447970850000e+00 3.8067550717090000e+00
148 7.2577780578519997e+00 3.3497569584050000e+00 9.6461767438789998e+00
149 3.9832804728069999e+00 1.0210307848300000e-01 -4.5328425125910004e+00
150 -5.8435126726139996e+00 -8.1516654026430002e-01 -1.1321437382860000e+00
151 -1.7316728458020001e+00 -6.1732962318210003e+00 2.1527383394120001e+00
152 -1.0328573016269999e+01 -6.4848726291230001e+00 -4.9636575716750002e+00
153 7.6542487947589999e-01 -5.2637693513210004e-01 1.4593672601230001e+00
154 -2.5026081083189999e+00 1.2042147786330000e+00 -8.4138304147229999e+00
155 1.9268354818870001e-01 7.3100456484340004e+00 3.6872953936610000e+00
156 2.4706484615259999e-03 4.6077912732920001e-01 7.3152624080999997e+00
157 -8.4905831477539995e-01 -3.6022601262539999e+00 2.0559668535550002e+00
158 1.8636446245439999e+00 2.1167271588409999e+00 -4.7914545438599998e-01
159 -2.0897491273309998e+00 -1.8028678920250001e+00 -3.3071262009140001e-01
160 1.4097952284540000e+01 -1.7492153223100000e+00 6.3422567333080000e+00
161 5.9236737252600002e-01 5.0784440112500002e+00 5.0165878769959997e+00
162 -6.4120527147969997e-01 2.4912666948709999e-01 1.2396037504430000e+00
163 -2.0553139906580000e+00 -6.0633322761160002e-01 -2.1201835118170001e-01
164 -2.1720654014370000e+00 5.0679378201839997e-01 2.0713998897639998e+00
165 7.4952733814689996e+00 3.2926134343680002e-01 2.8461196062740002e-01
166 -1.3970948804479999e+00 5.3018357406350001e+00 -6.6962173395519997e-01
167 -1.3823340871540000e+00 1.3638233147379999e+00 -4.6241914011730001e-01
168 4.2968656760990003e+00 8.8876813246419992e+00 -7.8507832400080002e-01
169 -1.1455070452020000e+00 4.6502722160019996e+00 -6.1999333715780001e+00
170 -1.1929252421140000e+00 4.4897388454179996e+00 2.6224561940290001e+00
171 3.4070668221589999e+00 -9.0703788621470005e-01 2.2612916187890000e+00
172 1.5748037881760000e+00 2.6604605186299999e+00 1.1799560309379999e+00
173 -1.3747348184740000e+00 -3.7422524025780000e+00 2.6298800819810002e+00
174 -3.6024791345859999e+00 2.2796966820829998e+00 1.5849555636160000e+00
175 -9.0199059062579998e+00 5.0109528185999996e-01 -4.2527082013340001e-01
176 2.3270203644100000e+00 -4.4662556668480002e+00 3.5771121207949998e+00
177 -4.4558811708129999e+00 1.1307361198650000e-01 1.3752220282940000e+00
178 -2.9120510217849999e-01 -2.0230152452039998e+00 -4.7119993298359999e+00
179 -1.6447937770839999e-01 4.6140786537600000e+00 -4.5892171694449999e+00
180 -1.5615086078010001e+00 -2.1942566265490000e+00 2.2522535132580002e+00
181 1.1092126539300000e+00 8.2357878379930000e-02 -2.1868021468499999e+00
182 1.4689031035789999e+00 4.0474754154259998e+00 4.2326422864600000e-01
183 -3.4079259622650002e+00 9.0033194201150000e+00 -1.0242739491230000e+00
184 7.0008127807750000e+00 -4.9751409309029997e+00 -3.7070452384550001e+00
185 5.8816288202450000e+00 2.6658261010339999e+00 -2.1791877416570000e+00
186 2.3284597044819999e+00 -2.9834874237190001e+00 3.0980847306590000e+00
187 -6.5619860934989998e+00 -2.1164934100799999e+00 4.8935392892899996e+00
188 3.9131871814610002e+00 -5.1499017283380004e+00 2.3612576197149999e+00
189 9.6930319822239994e+00 -6.1533462310070002e+00 -5.2270288108170004e-01
190 -4.5313019922650000e+00 8.8195046836060005e+00 -3.3224522367040001e+00
191 5.0134107756880004e+00 -6.1968317592149997e+00 4.1211005306630000e+00
192 -7.3126606942869998e-01 -3.3780162133230002e-01 4.3574476360150003e+00
