LAMMPS data file extracted from NVT dump, timestep 1640000, units metal

192 atoms
2 atom types

0.0000000000000000e+00 1.6195563468200000e+01 xlo xhi
0.0000000000000000e+00 1.6195563468200000e+01 ylo yhi
0.0000000000000000e+00 1.6195563468200000e+01 zlo zhi

Masses

1 12.00000000
2 16.00000000

Atoms # atomic

1 1 1.0389553129870000e+01 2.1471587442060001e+00 3.0359458788559999e+00
2 1 1.4371881506090000e+01 6.4574472958279996e+00 1.3343958675760000e+01
3 1 3.6244207692560000e+00 1.5735483569270000e+01 5.3654219234850000e+00
4 1 1.0974288769610000e+01 4.1953535044250003e+00 1.2312072146240000e+01
5 1 1.1718172656140000e+01 1.5713664332240000e+01 1.4917291161810001e+01
6 1 1.5763266382370000e+01 1.4594255779379999e+01 1.0470742268930000e+01
7 1 4.3346121677129998e+00 1.1957416042280000e+01 1.1947535433170000e+00
8 1 7.0849238230270002e+00 1.4436374532069999e+01 7.3291138917309997e+00
9 1 7.8287992764899998e+00 7.3568561884759998e+00 1.4489292503580000e+01
10 1 1.5454923670619999e+01 1.0809883376660001e+00 8.4231197797250008e+00
11 1 5.1758949945649997e+00 8.7980214209359993e+00 3.2871355940970002e+00
12 1 6.2812670786849996e+00 3.2950432317880002e-01 9.8503137948850004e+00
13 1 2.1936569680700000e+00 1.3541473709010001e+01 8.3058483220599992e+00
14 1 1.1162861724980001e+01 1.4781291458760000e+01 2.6760702986220002e+00
15 1 1.1313143152589999e+01 5.5378648301120004e+00 1.5398579061210000e+01
16 1 1.5791707150460001e+01 1.4808198025710000e+01 5.8060042940630003e+00
17 1 1.2749035742189999e+01 5.0406468155180004e+00 8.9524226885309997e+00
18 1 3.5172438467829998e+00 2.0696876785909999e+00 1.1949389350430000e+01
19 1 2.2747693137090002e+00 9.4193606752360007e-02 2.3129248993650000e+00
20 1 9.5261448478199995e+00 1.0912732195580000e+01 7.9252070489640003e+00
21 1 1.2483273817060001e+01 1.0986859517770000e+01 1.1337084890580000e+00
22 1 1.0268636890900000e+01 6.8759299726830001e+00 6.6035806405740001e+00
23 1 1.2855868668559999e+01 7.4696299538210003e+00 2.6429253072990000e+00
24 1 1.6100283924639999e+01 1.1818741798310000e+01 2.3017758243939999e+00
25 1 1.1140346915429999e+01 1.2200021049949999e+01 1.1495712076440000e+01
26 1 2.9914062744650001e+00 1.4229366784610000e+00 8.7040406536610000e+00
27 1 1.0820189287230000e+00 3.9959512817489999e+00 4.2688280834210000e+00
28 1 4.9700170488199999e+00 5.3296069936280004e+00 8.5438514108339998e+00
29 1 1.2687480887390000e+01 1.0773990942030000e+01 5.1530582018670001e+00
30 1 1.4391947761639999e+01 1.2333004788660000e+01 1.3583765008560000e+01
31 1 8.1485396517030004e+00 1.2593527984110001e+01 1.5998870961870001e+01
32 1 7.6449442481530001e+00 2.5875843611759999e+00 1.5313206635949999e+01
33 1 1.1499123381920000e+01 9.5232735913699997e+00 1.4488204052290000e+01
34 1 7.4973045115029997e+00 3.5960900141810002e+00 1.0754289429640000e+01
35 1 3.3458925067120000e+00 1.3191038600650000e+01 1.3055924612929999e+01
36 1 6.0086773504600000e-01 1.0444868660690000e+01 6.6004967204879996e+00
37 1 8.5026490322240000e-01 7.8027043076589999e+00 2.3476557328609999e+00
38 1 6.2393136943920000e+00 1.1064011377750001e+01 9.5877141026969994e+00
39 1 1.5090333752010000e+01 6.6303813874569997e+00 6.6514460201969996e+00
40 1 3.1681666785279998e+00 5.9651915289880000e+00 1.2924494993370001e+01
41 1 1.2838788570109999e+01 3.3884055903490000e+00 5.7138173530980003e+00
42 1 4.9513522139350004e+00 2.5538867507580001e+00 5.4947673582740002e+00
43 1 1.1574714425800000e+01 1.6042718092499999e+01 1.1519878729620000e+01
44 1 2.0737341271009999e+00 9.4507500625500001e+00 1.0961597439269999e+01
45 1 5.0279858402060000e+00 3.0926568820750000e+00 1.4368921816119999e+00
46 1 1.5087691224560000e+01 2.7670626047079998e+00 1.3381160821550001e+01
47 1 1.1768526059710000e+01 1.4651678455790000e+01 7.6448576143870000e+00
48 1 4.2032113039050003e+00 8.5153104322199997e+00 7.2186934215210004e+00
49 1 1.7543947073930000e+00 9.5909411742530004e+00 1.5154998986260001e+01
50 1 9.1321380178639995e+00 7.6021261869099996e+00 1.6918849796619999e+00
51 1 4.9133371073559999e+00 1.1691307584350000e+01 5.6078117143839998e+00
52 1 8.7441415959879993e+00 9.4002819412310004e+00 4.3448045648670002e+00
53 1 8.4799184843990005e+00 1.9846681840289999e+00 7.2104255083400002e+00
54 1 3.4927906363119998e+00 6.1382304368220000e+00 9.0611921358479997e-01
55 1 1.0773309799280000e+01 7.8095017808430001e+00 1.0528771711190000e+01
56 1 6.8398688588959997e+00 1.5714540543349999e+01 1.3419557221120000e+01
57 1 6.8480889747069995e-01 5.3976233665009996e+00 9.8894539982079994e+00
58 1 1.4594761593459999e+01 1.0398283377049999e+00 2.3940304209160002e+00
59 1 1.5951310301490000e+01 1.5187921821030001e+01 1.5782333928550001e+01
60 1 1.5142792194129999e+01 4.8368276319890002e+00 1.5693189496860001e+00
61 1 7.4122145818420000e+00 1.4183071384330001e+01 3.3305558543539999e+00
62 1 5.4086796068179996e+00 9.8752053534689992e+00 1.4678271653059999e+01
63 1 1.3352854159120000e+01 9.7197043256109996e+00 9.6964948874719994e+00
64 1 7.6088375591149999e+00 5.1216714303480000e+00 4.4723645586140002e+00
65 2 9.6121004336699993e+00 1.3400193505689999e+00 2.6368538081169999e+00
66 2 1.1116107215580000e+01 2.9845580784310002e+00 3.3502084266340000e+00
67 2 1.4921782159819999e+01 7.1323580942740001e+00 1.4118915176290001e+01
68 2 1.3817662624780001e+01 5.7612494438809998e+00 1.2590148276280001e+01
69 2 3.0019553507190002e+00 1.1551011295600000e-01 6.1610103608850002e+00
70 2 4.2029147420179997e+00 1.4970315343490000e+01 4.7097548680990000e+00
71 2 1.1107927625029999e+01 3.5440767974209999e+00 1.3274267822090000e+01
72 2 1.0866308603109999e+01 4.8371663734080004e+00 1.1307934581270001e+01
73 2 1.1345503033720000e+01 1.4919367005940000e+01 1.4163725411470001e+01
74 2 1.2162967231290001e+01 1.6566723132430000e-01 1.5809859023730001e+01
75 2 2.1168894357439999e-01 1.5346051370270001e+01 1.1120586607910001e+01
76 2 1.5141058166340001e+01 1.3787054629220000e+01 9.8829483758129992e+00
77 2 4.3519953028120000e+00 1.2296329390040000e+01 5.6935793400909998e-02
78 2 4.2569144776309997e+00 1.1529791769739999e+01 2.2624585892089999e+00
79 2 8.2099589522750005e+00 1.4120731112750001e+01 7.3645842459940001e+00
80 2 5.9644097063519999e+00 1.4766223558160000e+01 7.1801878076739998e+00
81 2 8.1688240427659995e+00 8.4960383778280004e+00 1.4315727823290000e+01
82 2 7.5414744372550002e+00 6.2158090987960000e+00 1.4684948915030001e+01
83 2 1.4528140014050001e+01 8.5355580405940001e-01 9.1008851170580005e+00
84 2 2.2769490522960001e-01 1.2086731850229999e+00 7.7574621956350001e+00
85 2 4.3674192559550002e+00 8.5723116126600001e+00 4.1289271339970002e+00
86 2 5.9835337857799997e+00 9.1102627776970007e+00 2.4838865393740002e+00
87 2 6.7463813866480002e+00 1.2368748869390001e+00 9.2892586732390008e+00
88 2 5.9750350946859996e+00 1.5592139540900000e+01 1.0518406046430000e+01
89 2 2.3456282737419998e+00 1.3810357221129999e+01 7.2013423991850001e+00
90 2 1.9163891589440001e+00 1.3183786591390000e+01 9.3699246558600002e+00
91 2 1.1702763811800001e+01 1.5353859121810000e+01 3.5343431067730000e+00
92 2 1.0846844590710001e+01 1.4129693500809999e+01 1.7950798362689999e+00
93 2 1.0232681973809999e+01 6.0316366171259999e+00 1.5449527297270000e+01
94 2 1.2373224401320000e+01 4.9956544984609996e+00 1.5449929444640000e+01
95 2 1.4719139609650000e+01 1.4708422626939999e+01 6.3319920269769998e+00
96 2 6.1968796884110000e-01 1.4862598865650000e+01 5.2315474808030000e+00
97 2 1.2851100096210001e+01 6.2157063997400002e+00 8.8845475461390002e+00
98 2 1.2624382075350001e+01 3.8820434901410001e+00 9.0141549758059991e+00
99 2 4.6628638429039997e+00 1.9144656669639999e+00 1.1659584061660000e+01
100 2 2.3791517628759999e+00 2.0391357069230001e+00 1.2291147447369999e+01
101 2 2.2147488443949999e+00 8.4624621597380001e-01 3.2440488697009999e+00
102 2 2.4150210483030001e+00 1.5586522655780000e+01 1.3657974532449999e+00
103 2 9.3534519399750007e+00 1.0920883632810000e+01 6.8035276260159998e+00
104 2 9.7113223251280001e+00 1.0909716555139999e+01 9.1377308402070003e+00
105 2 1.3087028429829999e+01 1.0891438444429999e+01 1.2931968221789999e-01
106 2 1.1939010478309999e+01 1.0947828850360001e+01 2.1633451961239998e+00
107 2 1.0635917327820000e+01 7.9301997058179996e+00 6.1532929478289997e+00
108 2 9.9147897740180007e+00 5.8525984379090001e+00 7.0509813990210004e+00
109 2 1.2290939136730000e+01 7.0659018318999998e+00 3.5685132876969998e+00
110 2 1.3389047891010000e+01 7.9793101193079998e+00 1.7578942577809999e+00
111 2 1.4957444125840000e+01 1.1805614316660000e+01 2.6878767716569998e+00
112 2 9.5277444448250004e-01 1.1894544792530001e+01 1.8160058901359999e+00
113 2 1.0070522645880001e+01 1.2764114349250001e+01 1.1646864008910001e+01
114 2 1.2132432319319999e+01 1.1587541692869999e+01 1.1406724124169999e+01
115 2 2.7479443881669998e+00 5.0040869773300001e-01 9.3786555802850007e+00
116 2 3.2545902862060001e+00 2.4050507364190001e+00 8.0951515957849995e+00
117 2 1.2598701062510000e+00 3.4901162634950000e+00 3.2183973970380002e+00
118 2 6.9318486644110000e-01 4.4914447541460003e+00 5.2597281563690004e+00
119 2 4.5015408914329997e+00 5.9927968033230004e+00 9.3971964111769992e+00
120 2 5.4322661598690001e+00 4.6519289024640003e+00 7.7119365852359998e+00
121 2 1.3314306096870000e+01 9.8077101337790005e+00 4.9237516136090003e+00
122 2 1.2126261336320001e+01 1.1786888126650000e+01 5.3741965080270004e+00
123 2 1.4389606206270001e+01 1.1192216379040000e+01 1.3690379985120000e+01
124 2 1.4415465717240000e+01 1.3521580971940001e+01 1.3455473452240000e+01
125 2 8.5134768248199997e+00 1.3207081146309999e+01 1.5070399213720000e+01
126 2 7.6912282300410002e+00 1.2036663085180001e+01 7.4962149910989995e-01
127 2 8.3844678129830008e+00 2.3771101654439999e+00 1.6198585240980002e+01
128 2 7.0205895973240002e+00 2.6396431299860001e+00 1.4346587222229999e+01
129 2 1.1004785995420001e+01 1.0480147330779999e+01 1.4121905602989999e+01
130 2 1.1980783247280000e+01 8.5776623874109994e+00 1.4928663957190000e+01
131 2 6.4360142078729998e+00 4.0224171271709999e+00 1.0567121746800000e+01
132 2 8.5867486565130005e+00 3.2127738178329999e+00 1.0988811552730001e+01
133 2 3.3777152404700002e+00 1.4244928382780000e+01 1.3556446892620000e+01
134 2 3.2343607367109999e+00 1.2156032672660000e+01 1.2496707648479999e+01
135 2 3.3872527383709999e-01 1.0471945621800000e+01 5.4757070813809996e+00
136 2 8.0832495222139999e-01 1.0547070893300001e+01 7.7636751930269998e+00
137 2 4.8679403445769998e-01 8.8637006182550007e+00 2.0287863353629998e+00
138 2 1.2376029055410001e+00 6.7839307755189999e+00 2.7639607757140001e+00
139 2 5.6967056882489997e+00 1.2081501199100000e+01 9.5488018504040006e+00
140 2 6.8401657508160003e+00 1.0041334617350000e+01 9.5619307502030004e+00
141 2 1.5613726759350000e+01 7.6787735921489997e+00 6.5242001548350004e+00
142 2 1.4440487224789999e+01 5.6364601133090000e+00 6.6445710850559996e+00
143 2 2.7660629664049998e+00 7.0859645914120000e+00 1.2714413982350001e+01
144 2 3.5732639049229999e+00 4.8687380863329999e+00 1.3101423741030001e+01
145 2 1.3685097224170001e+01 2.7969732410980002e+00 5.1304989215049996e+00
146 2 1.1965311099259999e+01 4.0062217981619996e+00 6.2096417284810004e+00
147 2 5.5016736970139997e+00 1.8139036598570000e+00 6.2284404328520004e+00
148 2 4.2431666774119998e+00 3.3019935005490000e+00 4.9307730743410003e+00
149 2 1.0606372499110000e+01 4.8928982007520000e-01 1.1409979631910000e+01
150 2 1.2579022977370000e+01 1.5442472392959999e+01 1.1503864689960000e+01
151 2 1.2734737589959999e+00 9.5076222675220006e+00 1.1800344415840000e+01
152 2 2.9617476186839999e+00 9.4157117087379998e+00 1.0209056917040000e+01
153 2 5.6656726245000000e+00 4.0783843822170001e+00 1.3172470649990000e+00
154 2 4.2864783642509998e+00 2.1492201015260002e+00 1.5430953804520000e+00
155 2 1.4308483945230000e+01 1.9099402169680000e+00 1.3450124593430001e+01
156 2 1.5955328375480001e+01 3.5388980689950000e+00 1.3121010346000000e+01
157 2 1.1946843099700001e+01 1.3495428666980001e+01 7.7792201584149998e+00
158 2 1.1410012655339999e+01 1.5777322058710000e+01 7.5598585136690000e+00
159 2 3.0389516049640002e+00 8.5246034077019992e+00 7.2245196436360004e+00
160 2 5.3870551262510000e+00 8.4440408000870004e+00 7.3112072689009997e+00
161 2 1.4150878916880001e+00 1.0674894752869999e+01 1.4826338038350000e+01
162 2 1.9330317777879999e+00 8.5579853457600006e+00 1.5660483386110000e+01
163 2 9.1674784359250001e+00 8.5392820076550002e+00 1.0056580586110000e+00
164 2 8.9559531703110000e+00 6.7325227709700002e+00 2.4587560875709999e+00
165 2 5.8086177069399998e+00 1.1755123304360000e+01 4.8567319338260004e+00
166 2 4.0866459354410001e+00 1.1593868331470000e+01 6.4238256044530004e+00
167 2 7.8336687752570002e+00 8.8355522181719994e+00 4.8468166003800004e+00
168 2 9.5557070550750005e+00 1.0103252337050000e+01 3.9204295743649999e+00
169 2 8.8595319569030000e+00 8.7227627862169999e-01 7.3598391179910001e+00
170 2 8.1396872222110002e+00 3.1110368162360000e+00 7.0324618463070001e+00
171 2 2.8183664393590000e+00 5.5250660382160000e+00 1.4395564034969999e-01
172 2 4.1024789289739996e+00 6.8850556627410002e+00 1.6056989713790000e+00
173 2 1.0362737076949999e+01 7.7517757353130001e+00 9.4537022867339999e+00
174 2 1.1103655275620000e+01 7.8521353378030003e+00 1.1666751756300000e+01
175 2 7.7066094707469999e+00 1.6040984722889998e+01 1.2676032173379999e+01
176 2 5.9342340949540002e+00 1.5449031945200000e+01 1.4124716583230001e+01
177 2 3.0659215515360000e-01 6.0962754864899997e+00 1.0761405992500000e+01
178 2 8.9567159758040005e-01 4.7143061576180001e+00 8.9543362265919999e+00
179 2 1.4908384363530001e+01 1.7631783824750000e+00 1.5341099459470000e+00
180 2 1.4325355460670000e+01 2.0684266631670001e-01 3.1559244622459999e+00
181 2 1.5482900150060001e+01 1.4246114819360001e+01 1.4270665298400001e-01
182 2 2.4700774368150000e-01 1.6114890257980001e+01 1.5258231943889999e+01
183 2 1.4868328421670000e+01 5.0465221419060002e+00 2.7288469945850000e+00
184 2 1.5431826718120000e+01 4.6327998651710001e+00 4.1872651748820000e-01
185 2 8.3421255326819992e+00 1.4236559395540000e+01 4.0795585933230001e+00
186 2 6.4781485083549999e+00 1.4252048858900000e+01 2.6409252212670000e+00
187 2 5.8764400513570001e+00 1.0789268037610000e+01 1.4142113459240001e+01
188 2 5.1309919357369997e+00 8.8625291707129996e+00 1.5216371858980001e+01
189 2 1.3897121239510000e+01 9.2224007052400001e+00 1.0637913868189999e+01
190 2 1.2751754441910000e+01 1.0136937753720000e+01 8.7753499737100000e+00
191 2 7.1722548202630003e+00 6.0074038874650002e+00 5.1222977896400002e+00
192 2 7.8947674298260004e+00 4.2083712484040001e+00 3.7832954040060001e+00

Velocities

1 8.7100863115989995e+00 -6.1133076934739998e+00 -4.3952060958930002e+00
2 8.8322084274239998e-01 9.7311304169520003e+00 -4.3773502674300002e-01
3 4.6553977161990001e-01 -2.0474981528540002e+00 -5.5180917789570003e+00
4 -1.4918003094599999e-01 -1.9936162969119999e+00 -6.4688836664479998e-01
5 3.0131420105740001e+00 1.2614560381789999e-01 -1.9344231039390001e+00
6 -6.3092680959220004e+00 -1.7677180277200000e+00 -4.8610895789360002e+00
7 4.1638369557730002e+00 2.7795274721780001e+00 6.9859597661180004e+00
8 3.1616822110579998e+00 2.6097412356850000e+00 -6.6919857128589999e-01
9 4.1170293585589999e+00 1.3619052952890001e+00 2.7613486008480002e+00
10 -8.4246009574479999e+00 2.0359560855389999e-01 -9.8386328681030000e-01
11 -3.0142262895630001e+00 2.0852757360759999e+00 -9.4829663301499991e+00
12 -2.2208792686419998e+00 -1.9765781024930000e+00 9.4686641933860005e-01
13 7.8867250911020004e-01 -1.4082280398050000e+00 7.0014242806589999e-01
14 5.9341285612950001e+00 -5.3190069727109996e+00 -5.6224907593710005e-01
15 -2.4931820251510000e+00 -4.8146962056480003e-01 2.1921378314159998e+00
16 -7.1788152039529995e-01 1.3979509038900000e+00 -7.1315868120430004e+00
17 1.6788736734830001e-01 2.6930288962529998e+00 2.2544364089500002e+00
18 1.1342420901350000e+01 4.4147484819880001e-01 3.9032296820210002e+00
19 4.4895041914830003e+00 1.0334527030709999e+01 -2.8782240504610002e+00
20 -5.7871087701660002e+00 1.3263918302440001e+00 6.2490743567839999e+00
21 -9.0342722609339998e-01 3.5445626272610000e+00 -4.1853430887499998e+00
22 1.2116544912650000e+00 3.0371606973229999e+00 -4.4068911264499999e-01
23 1.5625651851389999e-01 4.3171561133140002e-01 1.8242480217110000e+00
24 4.3850022575579999e+00 2.9815787563580001e+00 1.4833618383730001e+00
25 1.7754677984570000e+00 6.5251129479029997e+00 -3.9188283215570002e-01
26 -3.6479260605019999e+00 5.1742429146230000e+00 8.6177938290529998e-01
27 1.6694883525840001e+00 4.8452621252729999e+00 -7.9746306866299999e-01
28 3.1780542877519999e+00 -3.2384952777640001e+00 -1.9399942662309999e+00
29 4.0496952323960000e+00 9.9950760796610005e-01 -3.1412253723590000e+00
30 1.7659812352960000e+00 -6.8079592782049998e+00 -5.2706192124440001e+00
31 5.1889176424430001e+00 2.0672768219480000e+00 2.6014564935259998e+00
32 3.9506241401640002e-01 -2.2567213932380001e+00 -1.9737215374579999e+00
33 -3.0191687971280001e+00 -6.8131673335159997e+00 -2.5795716989300002e+00
34 -1.9437370123110000e+00 -4.3766056365689998e-01 -2.6235821780499999e+00
35 5.9830104126760002e+00 9.4139762821089992e+00 5.4973396505599998e+00
36 2.1642361446809999e+00 -3.3259021627949998e+00 -4.4109977465340000e+00
37 2.6551321938350001e+00 -9.2655538975579999e-01 3.3378085174660002e+00
38 9.8841485999650003e-01 1.3719986936910000e+00 -9.5504455748100003e-01
39 -4.6631918395990004e+00 9.7602455384200004e-01 1.0503052166160000e+01
40 1.9284409938500000e-01 -1.2762844998050000e+00 1.4962940491359999e+00
41 9.9602615955990004e+00 7.3930214015839999e+00 -1.7206230917159999e+00
42 4.5173849020499999e+00 4.2682921669600002e+00 -1.4529938648579999e-01
43 -8.4985158794890003e-01 -5.3563644326509996e+00 -2.7886054111449998e-01
44 -1.3664808983950001e+00 -3.5858996776310001e+00 -1.3810561875650000e+00
45 1.4493488429710000e+00 1.3231543128040000e+00 6.3338023875460001e+00
46 1.4799379285480001e+00 -6.9165593420190001e+00 -3.1516902484500000e+00
47 2.9225742256410001e+00 -9.6389143460409998e-01 7.3744024214610002e+00
48 -1.1423847529310001e+01 5.7192873132789996e+00 -4.8394100906580001e-02
49 2.2814107268130002e+00 -4.2552539197229997e+00 5.7881763560030004e+00
50 6.8049658871460004e+00 3.1912039953279998e+00 3.6680222960259998e+00
51 -4.1151768812069998e+00 8.4940894298720000e+00 -1.5626673897640000e-01
52 -9.5219789893219997e-01 -1.0942230214780000e+01 2.1810624021690002e+00
53 -6.3168031600160002e-01 -2.3357022641910001e+00 -6.4649619532760001e+00
54 5.1856177956050002e+00 1.2775270146850000e+00 -7.2630340770979995e-01
55 5.9891218278349996e+00 -2.7424352383459998e+00 1.0259296608190001e+00
56 3.4520211389259998e+00 1.6375301826160000e+00 -5.3858237510470000e+00
57 -8.0276631007800003e-01 6.0701058977680002e+00 3.4910540381940001e+00
58 6.9053709650880002e+00 -2.1465482194319998e+00 3.1852066465519999e+00
59 -1.5977270947110001e+00 -3.4114800870409998e+00 1.4801989921300001e+00
60 -2.3671753580010000e+00 1.6087202904669999e+00 4.0069145707339997e+00
61 -3.1007665615370001e+00 7.2469778447069997e+00 -1.1302822094689999e+00
62 3.2816980033170000e+00 4.9342755560820004e+00 -3.5708570615399999e+00
63 5.3893051795959996e+00 7.1483297131650003e-01 9.3810020362510005e-01
64 -2.6222691888740002e+00 2.7584266785090001e+00 -6.6361182876499996e+00
65 4.7586780213999997e+00 -3.4609125317650000e+00 4.7632349863780004e+00
66 1.6318901848780001e+00 -9.5659948480400003e-01 -4.1717994315480000e+00
67 -1.9778044562270001e+00 -3.1252017281240002e-01 -5.1527706521960003e-02
68 -9.8202355665270002e-01 -1.2638507258439999e-01 1.7159786505410000e+00
69 5.4013834414720003e+00 2.6382647726050001e-01 -1.5331180129410000e+00
70 2.9951310859350002e+00 -7.0780859665860003e+00 -6.3382425873869996e+00
71 1.7998394257460000e+00 -8.6549440446390005e+00 -1.9408388077050001e+00
72 -5.3009357188910000e+00 -1.1304602699360000e+00 -5.1537908572100000e-01
73 -9.7562496159830003e-01 7.3792327619740004e+00 -2.5698129413960000e+00
74 2.6123225207160000e-01 -4.3796456793570000e+00 1.4320870236050001e+00
75 -1.3224543506619999e+00 -4.5988389803279999e+00 -3.4861055075170002e+00
76 4.0236302477520001e+00 3.1131822972670000e+00 9.5950966187399995e+00
77 -3.9041994649800000e+00 -2.7839881808620000e+00 4.6851025056160003e+00
78 4.9024258266649996e+00 -2.7251406311510000e+00 1.0318029790030001e+00
79 -7.8037036981190004e+00 -1.5258342090320001e-01 9.3308319326699996e-01
80 -1.4238190126910000e+00 8.5452143560500005e-01 6.2457218923489997e+00
81 6.4863566378359998e+00 -3.5708380116409999e+00 9.1886326455450001e-02
82 -9.1150421190090003e-01 -1.0122128146520000e+01 -6.9203579366470003e-01
83 -4.0934307741499998e+00 5.5165357317069996e-01 2.7505222082020002e+00
84 -6.4034066150340001e+00 -2.5155095179280001e-01 -1.7892143059790000e+00
85 2.2149599548970000e+00 5.5812982410559997e-01 -4.4697922172059998e+00
86 -6.8192427649539999e-01 5.2029949684970003e+00 -4.0677841811709996e+00
87 -2.7400726327070002e+00 1.9680466075909999e+00 -3.7104199396580002e+00
88 5.0788948522380002e+00 -2.5293345170329999e+00 -2.4000253991939999e+00
89 -2.7626692994430000e+00 -1.7717406182590001e-01 3.8506596292089998e+00
90 4.9201460996700003e-01 1.2253769700629999e+00 -3.2901143927760002e+00
91 -1.9273064160810001e+00 -5.6739645123509996e-01 5.2609887249679999e-01
92 -3.4045358767940002e+00 -4.5642961044270001e+00 6.3490147625079996e-01
93 -4.6846946421840002e-01 5.1680587311129997e+00 -1.2540383497570000e+00
94 -4.9896275663810004e+00 -7.9190770743129999e+00 -3.4262480610580002e+00
95 1.1671525255049999e+00 -2.6154662451399999e+00 5.1945732932660000e+00
96 -2.0732526238300000e-01 1.8840612116120001e-01 -5.9458543705700002e+00
97 6.6568119345180001e+00 5.4123529990890002e+00 -3.7460680081850000e+00
98 -4.3141940729139998e+00 1.4328254736240000e+00 -2.8418203979790002e-01
99 -1.2148241783989999e+00 -1.2764423803700000e+00 7.5123759786760003e+00
100 -3.2625276442679998e+00 2.1572455816309999e+00 4.7479090987979999e+00
101 7.4827015646559998e+00 -4.3757879777410000e+00 5.7203616166320002e+00
102 1.2473268336159999e+00 2.7060371734729999e-01 -3.9687024244439999e+00
103 1.1765410281770000e+01 6.7903596508049997e+00 -3.8810406559980000e+00
104 -9.6254313942749992e+00 -1.2728493783360000e+00 -7.3497086502300002e-01
105 2.1988625815309999e+00 4.3848654297070002e+00 8.1903167081110002e+00
106 -9.1346066549120000e+00 -3.2717310292200001e+00 -4.0101508349049997e+00
107 -4.6404232877540003e-02 -2.5257655730269999e+00 2.9716984596380001e+00
108 -3.0386482315920000e+00 -8.3685841454230003e-01 6.7174659822759999e+00
109 -6.0108548163039999e-01 5.4078643895200003e+00 -1.0261822863259999e+00
110 -9.0449514166410001e+00 5.4531024775350003e+00 5.9363212358849999e+00
111 1.5128623770000000e+00 -2.1092700786549998e+00 -1.0017581804570000e+01
112 2.4372557318729999e+00 1.3837108760379999e+00 -8.9137847572010003e+00
113 -3.0583554051880002e+00 4.7062083966559998e+00 3.8641558119399999e+00
114 -3.4691869364739998e+00 -3.6613675981450000e+00 3.1569275003490000e+00
115 -1.6148555202320001e+00 -7.6144927611949997e-01 1.7961366297190000e+00
116 -2.5085518988670003e-01 2.1603995994159999e+00 -1.5755172332580001e+00
117 -2.2884518751609999e+00 2.3334216176289999e+00 -6.1864618251039998e+00
118 4.6412369789809998e-01 -3.9921164748629998e+00 -1.4746653761180000e+00
119 5.7391781818569998e-01 2.4438039890240000e+00 6.9391300847870001e+00
120 -4.8416982972050002e+00 5.2749597893480005e-01 1.7033652617340000e+00
121 1.0301525388990000e+00 -6.1835076677840002e+00 3.5530491067929999e+00
122 5.1660142781919998e+00 6.7152417748789999e+00 -1.4535259205930000e+00
123 2.6998183817360002e+00 -1.7528692295749999e+00 -2.2423684344849999e+00
124 -1.0336578547390001e+00 -1.2864095899040000e+00 -5.8552764441559999e+00
125 5.0197110178819999e+00 4.0176079418889996e+00 5.2721685126790003e+00
126 4.5957514127380001e+00 6.6064319852370001e+00 3.4437515757049999e+00
127 -1.5675754556170001e+00 -6.5567602491999999e+00 5.2981059718249996e+00
128 -2.2935789098020001e+00 -4.4917514038640000e-01 4.0216576913270004e+00
129 1.5015934383770000e+00 -2.0054363884189999e-01 1.1896050811050000e-01
130 -3.3167167391499999e+00 -2.8914695880790000e+00 -1.9765132837970001e+00
131 2.8246326718499999e+00 2.6010592994809998e+00 3.2612754381550002e+00
132 7.2855787726320003e+00 2.4885836972200002e+00 5.9769460724419998e+00
133 1.3147854453220000e+00 2.4410498936680000e-01 1.9283609004110000e-01
134 1.2756924613889999e+00 4.4736934355390001e-01 2.1695746856300002e+00
135 4.1552291653789997e+00 1.0981757994579999e+00 -2.9297185391200000e+00
136 1.6513024321690000e+00 3.4460129732870000e+00 3.5051380057950001e+00
137 -9.9564401614090003e-01 -8.9844782724160002e+00 -1.0195739517780000e+00
138 -2.9220529964130000e+00 5.5543424948900000e-01 1.7118998814170000e-01
139 -4.3824466769389998e+00 6.6591844093420001e+00 1.9265681297870001e+00
140 -1.2444890273300000e+00 -4.0528574028800000e+00 -4.1630862672040001e+00
141 8.8213692833199993e+00 -1.2687965766700000e+00 -1.0320087162830001e+00
142 -7.2224400387660004e-01 2.3982487597279998e+00 -5.2919698748449999e+00
143 1.6845783620990000e+00 -3.3584068382290000e+00 -4.6739352077740000e+00
144 -6.0951654552290000e+00 2.2315928190859999e+00 -1.1721868162389999e+00
145 -1.1959474224230000e+00 -1.8637555546760001e+00 1.4729195304850001e-01
146 1.9020318697630001e+00 4.0763369075820002e+00 -3.1858706896849998e-01
147 6.5589595663270002e+00 -2.0995368981019999e+00 2.7659557724610000e+00
148 -2.1129013265049998e+00 -2.3572619624389999e+00 -9.2237900098460006e+00
149 9.0004966365759997e-01 -3.8614841781980003e-01 1.7773239984910001e+00
150 6.7640009855340004e+00 -2.5188264054160001e+00 1.4869769082840001e+00
151 -2.1305381055200001e-01 -3.4733303828480000e-01 -2.5733459690629998e+00
152 -4.9316239265160000e-01 7.3568938777969994e-02 -6.9651952033329998e+00
153 3.6207895472920000e+00 -4.7849911384830000e+00 4.7018359177919997e+00
154 -2.5115831702109999e+00 -1.5870255688220001e+00 3.3708835084410000e+00
155 -1.2112174512809999e+00 1.1018398943650001e+00 3.4040219384240000e+00
156 -6.6184757281530002e+00 -4.5834835856289997e+00 2.3717359577849999e+00
157 -5.8013944200320000e-01 5.3831815218290002e-01 -4.1050665630639998e+00
158 1.4216772726900000e+00 4.0264942616950004e+00 8.4984965221920006e-02
159 -5.2995089403459996e+00 1.5862764223990000e+00 -3.0621539414819998e+00
160 7.5834722380970003e+00 1.5255169289470001e+00 -5.7727649061289998e+00
161 2.2145368821560001e+00 -2.4807055039930002e+00 1.4363145292930000e+00
162 2.1396752099479999e+00 6.3706703243809999e+00 6.6305676528540003e+00
163 1.9559001062729999e+00 -6.3621510656620002e+00 4.1832795780490004e+00
164 -2.0982071070170001e+00 -1.5232194929070000e+00 2.4754818659270001e+00
165 -2.8130570175840002e+00 3.7006342251200000e+00 2.0081405996049999e+00
166 -1.3346991898710001e-01 3.7154804737760001e+00 2.6305073927749998e+00
167 -5.7807179782229996e+00 1.1041638812629999e+00 -1.4605189254950000e+00
168 -6.4125804163940003e+00 3.0661706521549998e+00 1.6442160144369999e+00
169 -4.6110324924699997e+00 -3.0017973203219999e+00 -1.5083601799940001e+00
170 -6.2550332123219998e-01 -5.9339768582980001e+00 -2.1012419811340000e-01
171 -4.0365598764459998e+00 -3.2526448764659999e+00 -2.2605317184740001e+00
172 1.9911018690080001e-01 -2.8737329669400000e+00 -8.7214141394410003e+00
173 -3.2915513427529999e+00 -1.2165222190100000e+00 5.8047386173189999e+00
174 -1.8651355502680000e+00 5.9625118307449998e-01 -3.1247415360319999e+00
175 3.0038232090740000e+00 6.6251888774890002e+00 -4.2953604161710004e+00
176 -1.0639666405770001e+00 1.5540585568230001e+00 -7.3035410200420003e-01
177 -1.2291889105130001e+00 -3.4659713708590001e+00 -5.3338848999860000e-01
178 -4.5442426668460003e+00 -4.6971333280570002e+00 2.8112492374770000e+00
179 -6.8535117433850001e-01 -3.8264363171840001e+00 2.6996633561810000e+00
180 -6.8664875106599998e-01 -1.3552416343970000e+00 -3.3049088729439999e+00
181 -1.2401827134020000e+00 5.9088969222490002e+00 4.4027075344049997e+00
182 -5.1441284464140002e+00 -4.3607524266039999e+00 -2.2699879548760000e+00
183 1.1466991748369999e+00 -3.4435119018060001e-01 -1.9656811257480000e+00
184 -1.3939751353300001e+00 1.3635541625240000e+00 -2.5181701435439998e+00
185 -2.8704640235590002e+00 -4.9428297323410000e+00 -3.6364008122490001e+00
186 -9.1999031866740000e-01 -1.6163821631510000e+00 5.0442924333660004e+00
187 1.7865707973090000e-01 1.4173479424790001e+00 -5.5184182225099998e-01
188 3.0908161959760001e+00 4.6765448438639998e+00 3.1761925355020000e+00
189 -1.0892982753100000e+01 -1.0421732531020000e+00 4.9469586162939999e-01
190 1.0240100694280001e+00 2.7023890586029999e+00 -9.5042220044250003e-01
191 -3.8100969365470001e+00 8.4615539805890005e-01 -4.5530121711330001e+00
192 -1.3565251741390001e+00 1.9605472158810000e+00 1.1793422957240001e+00
