LAMMPS data file extracted from NVT dump, timestep 680000, units metal

192 atoms
2 atom types

0.0000000000000000e+00 1.6195563468200000e+01 xlo xhi
0.0000000000000000e+00 1.6195563468200000e+01 ylo yhi
0.0000000000000000e+00 1.6195563468200000e+01 zlo zhi

Masses

1 12.00000000
2 16.00000000

Atoms # atomic

1 1 1.5345611545560001e+00 1.4484143813590000e+01 6.7600854619849997e+00
2 1 8.3624698035579996e+00 6.5575637274640002e+00 3.4802114490829998e+00
3 1 1.1107343557349999e+01 6.7310648248540002e+00 3.0279586325960001e-01
4 1 1.6327562141190000e+00 9.5148178861189994e+00 6.2353414068010000e+00
5 1 1.4244730338440000e+01 1.4243598801139999e+01 4.6631877919390003e+00
6 1 4.4617183377799998e+00 8.2095765795309994e+00 3.8108729155079999e+00
7 1 1.6112009028799999e+01 4.6160533866300000e+00 1.5312453190659999e+01
8 1 1.1755051269779999e+01 6.5094789276929999e-01 5.9507015681990003e+00
9 1 3.8141603193750000e+00 6.4326557444689998e+00 1.3986969730029999e+01
10 1 1.0632032617300000e+01 4.7994301892960003e+00 6.6086928567139998e+00
11 1 1.0225204462520001e+01 2.5198710589659998e+00 8.9057510481279998e+00
12 1 8.9524975583310002e+00 1.1849321572590000e+01 1.5873222578040000e+01
13 1 1.5208066278580000e+01 1.6009464553650002e+01 1.4399278508729999e+01
14 1 4.5181957629890004e+00 1.1151800132889999e+01 5.9431566928059998e-01
15 1 1.6113392394049999e+01 1.2794541336050001e+01 2.6709717446539999e-01
16 1 1.1756510008210000e+01 1.4598028424220001e+01 1.0266911565159999e+01
17 1 1.0653064168089999e+01 1.0495040458520000e+01 1.1672867119470000e+01
18 1 1.1919464894839999e+00 8.9386309463379998e+00 1.4786406448579999e+01
19 1 1.2927700042460000e+01 4.3757911553089999e+00 2.7889971225569998e+00
20 1 7.5525557845000000e+00 3.5626191516970001e+00 6.3131901848169996e+00
21 1 1.2112862432989999e+01 2.6405875767570000e+00 1.4478019740040001e+01
22 1 1.3410840430310000e+01 7.0600415345189997e+00 7.7731551462009998e+00
23 1 8.9845652790249997e-01 1.5384818452959999e+01 1.0538687896240001e+01
24 1 1.3583877454090000e+01 1.2207939625250001e+01 1.3425138042080000e+01
25 1 1.4140747761440000e+01 3.5279272595219999e+00 8.3468209632710000e+00
26 1 1.2767214234380001e+01 7.9508785022839996e+00 3.6741166724980001e+00
27 1 7.6607082000410003e+00 1.5103709415280001e+01 8.6757934189029999e+00
28 1 1.5903376063420000e+01 2.5829218252330000e+00 1.1887783552909999e+01
29 1 6.7954918960209998e+00 1.3019323091500000e+01 5.3813224063630001e+00
30 1 7.1329379452789998e-01 1.2470856104020001e+00 4.0303230082640003e+00
31 1 6.3858565303930002e+00 1.4760678002930000e+01 1.4896869372370000e+01
32 1 1.0474527247870000e+01 1.1306958655120001e+01 7.7292460885979999e+00
33 1 2.7280577161890002e-01 5.4941329565460002e+00 4.6834017532549996e+00
34 1 9.0332832095220006e+00 7.6621928750880004e+00 9.8835471905949994e+00
35 1 7.2071737279989998e+00 1.1028758231850000e+01 2.4150483046450000e+00
36 1 7.6920064511149997e+00 1.0124854287550000e+00 1.2281213304370000e+01
37 1 3.4261990934150002e+00 1.6032914527509998e+01 1.2158745781289999e+00
38 1 4.5875652286370000e-01 1.0564080006259999e+01 1.0142490080869999e+01
39 1 2.7428190685480001e+00 1.2068679078110000e+01 1.2997031585160000e+01
40 1 1.3012541027199999e+01 5.7325796953259998e+00 1.1969352553260000e+01
41 1 1.3511052866980000e+01 8.9497976160179995e+00 1.5714918460990001e+01
42 1 1.4159292929790000e+01 1.0552655717820000e+01 7.0122143909589996e+00
43 1 4.6483528727290002e+00 1.6067339544919999e+01 7.3853522955999997e+00
44 1 3.0933500980030000e+00 1.2793032644609999e+01 3.4877303561600002e+00
45 1 7.0827588888369997e+00 6.9529943350599996e+00 3.1858438331119998e-01
46 1 6.5523769680750004e+00 6.0647870031280005e-01 2.6763665044430001e+00
47 1 1.1143115949329999e+01 1.5424220621730001e+01 1.3922478413209999e+01
48 1 6.6334917597910001e+00 9.2892625633940007e+00 1.3183911834270001e+01
49 1 3.6212542866550002e+00 9.0372159227080004e+00 9.3764248195030007e+00
50 1 5.5547626165999997e+00 5.0552424937130001e+00 9.8006757864470000e+00
51 1 8.3422040149450005e+00 8.6260777928620005e+00 6.4685073481859998e+00
52 1 2.4826956485720002e+00 1.6016562142289999e+01 1.3818163700260000e+01
53 1 8.9711558757439995e+00 5.9961295943180000e+00 1.3144512517780001e+01
54 1 -5.3454077342740000e-03 9.8344248358440005e+00 2.8152060754920001e+00
55 1 1.2030252848720000e+01 1.0167527455270000e+00 2.4226928203239999e+00
56 1 1.2074092416369999e+00 5.9512147278440004e+00 1.0700128201629999e+01
57 1 8.1203474240780000e+00 1.2849403598240000e+01 1.1646466260960000e+01
58 1 3.5483136202300001e+00 2.5973208345669998e+00 1.1697392973840000e+01
59 1 4.1175942417310001e+00 1.3801886280420000e+01 9.7201717732230009e+00
60 1 4.7321399088770004e+00 2.5584378510920001e+00 1.5346836511470000e+01
61 1 3.2370877406649998e+00 3.9556435765439999e+00 6.5132866321960003e+00
62 1 4.5128066125800004e+00 4.2635370901260004e+00 2.5364695641180002e+00
63 1 8.5868430630919992e+00 3.4641316614069999e+00 8.4823084119180003e-01
64 1 1.0356628131170000e+01 1.3311144722010001e+01 3.8719342550820000e+00
65 2 1.5941961147660000e+00 1.3478273295150000e+01 6.1226255164760000e+00
66 2 1.5410464543150000e+00 1.5482957538550000e+01 7.3500317211080004e+00
67 2 7.4791808117900000e+00 6.1847862095990003e+00 4.1106094314090003e+00
68 2 9.2599668691169992e+00 7.0255726270799999e+00 2.9310314039469998e+00
69 2 1.0668338046080001e+01 5.9112176586559997e+00 1.5789536710600000e+01
70 2 1.1566238775970000e+01 7.5205097109220000e+00 1.0223687357019999e+00
71 2 2.8174967950140002e+00 9.5438159591529992e+00 6.1619770302300001e+00
72 2 4.4154894000139999e-01 9.3934085308289994e+00 6.4233284891390001e+00
73 2 1.4536235504850000e+01 1.3965706025719999e+01 5.7567738460860003e+00
74 2 1.4079446420609999e+01 1.4599974574490000e+01 3.5457050052720001e+00
75 2 3.6270085086699999e+00 7.4212077406889998e+00 3.5811395840469999e+00
76 2 5.1732190419849999e+00 9.0590254304739997e+00 4.2209521753240002e+00
77 2 8.1548286421700000e-01 5.2754277600709996e+00 1.4948801999790000e+01
78 2 1.5186104149809999e+01 3.9910442046960002e+00 1.5634142848990001e+01
79 2 1.2822618869939999e+01 3.0075961450080002e-01 6.3235086597420000e+00
80 2 1.0695733532380000e+01 9.1552718553010004e-01 5.4863405577839996e+00
81 2 4.4452518540290002e+00 6.1175171820529997e+00 1.4922112912439999e+01
82 2 3.2310511178760000e+00 6.6628801576510002e+00 1.3006308553009999e+01
83 2 1.1311599476040000e+01 3.8562091965750001e+00 6.4715824299730000e+00
84 2 9.9568129337679991e+00 5.7743840917089999e+00 6.6715240073700004e+00
85 2 9.6825856768770002e+00 3.5585924641509998e+00 8.9662929465890002e+00
86 2 1.0575513549720000e+01 1.4092843765520000e+00 8.8927666986659997e+00
87 2 7.7827372254259997e+00 1.1758272479470000e+01 1.5786731810239999e+01
88 2 1.0104461901360001e+01 1.2021232602680000e+01 1.5900685737740000e+01
89 2 1.5572469060740000e+01 1.5220523762710000e+01 1.3587450880850000e+01
90 2 1.4822404647460001e+01 6.4553714458040001e-01 1.5132840382050000e+01
91 2 3.9406799198639999e+00 1.2075983303550000e+01 2.1581585461489999e-01
92 2 5.1072603263870002e+00 1.0149370224609999e+01 8.8258786614649998e-01
93 2 2.9129084608049999e-01 1.1746624220199999e+01 1.6104007751729998e+01
94 2 1.5717681913850001e+01 1.3863094421300000e+01 5.9450639608400002e-01
95 2 1.2250196133130000e+01 1.5638941054149999e+01 1.0520101065360000e+01
96 2 1.1302089440210001e+01 1.3540865524659999e+01 1.0032084938810000e+01
97 2 1.1516850581200000e+01 1.0247285635030000e+01 1.0884819865410000e+01
98 2 9.7029986549569998e+00 1.0675211965680001e+01 1.2333983129670001e+01
99 2 2.0659181575500001e+00 9.5920197762459996e+00 1.4378321107360000e+01
100 2 3.4634663297000001e-01 8.3208663955690003e+00 1.5318144362700000e+01
101 2 1.1867606219620001e+01 4.6362600654620003e+00 2.3534797185560001e+00
102 2 1.4008742629660000e+01 4.1020311819839996e+00 3.2248234663650002e+00
103 2 8.4464658120809997e+00 3.2995076063100002e+00 5.5885026740310000e+00
104 2 6.6806661618660002e+00 3.7588595189120002e+00 7.0819254809489998e+00
105 2 1.1929217576519999e+01 2.0203931314719998e+00 1.3466290856890000e+01
106 2 1.2496387275009999e+01 3.2435100557549998e+00 1.5352586159539999e+01
107 2 1.4419156007450001e+01 7.0996442719930002e+00 8.4099927614420000e+00
108 2 1.2401318014290000e+01 7.0724368675419997e+00 7.1714673809349998e+00
109 2 3.1634006540409998e-01 1.4461834728670000e+01 1.0109762484050000e+01
110 2 1.4215961266290000e+00 1.1757465633979999e-01 1.0990932717210001e+01
111 2 1.3327838625989999e+01 1.2602059295049999e+01 1.2332089442679999e+01
112 2 1.3792618078560000e+01 1.1813370527889999e+01 1.4528471089800000e+01
113 2 1.4435875381080001e+01 3.3149603684360001e+00 7.2585497596580000e+00
114 2 1.3942051319080001e+01 3.8858115922410001e+00 9.4694026345379996e+00
115 2 1.3803501078129999e+01 7.4445927931240004e+00 3.6923907898150001e+00
116 2 1.1755822075390000e+01 8.5492571491770004e+00 3.6913323938990001e+00
117 2 7.3167174742469996e+00 1.4547298822409999e+01 7.6817395156480002e+00
118 2 7.9956918581650003e+00 1.5762771379740000e+01 9.5875119963300008e+00
119 2 1.5126472310330000e+01 2.1787390874689998e+00 1.2666785113640000e+01
120 2 3.6072910713910000e-01 2.9598486785380000e+00 1.0982771163540001e+01
121 2 7.8990607817370000e+00 1.2668103291680000e+01 5.5955800276670002e+00
122 2 5.7153622448829999e+00 1.3514576796789999e+01 5.2648972329059998e+00
123 2 1.1651960000299999e+00 1.6647666168370001e-01 4.1541444427520000e+00
124 2 1.9146146084259999e-01 2.3125588122449998e+00 3.8017241339360002e+00
125 2 6.9061739157859998e+00 1.5704584647890000e+01 1.5340795125800000e+01
126 2 5.9127275695010004e+00 1.3802050389100000e+01 1.4402603036980000e+01
127 2 9.6829181421410002e+00 1.1438989790490000e+01 8.6011681363969998e+00
128 2 1.1280266030800000e+01 1.1245867161880000e+01 6.8750713454919996e+00
129 2 1.3114241673589999e-01 5.6533021235680003e+00 5.8500682217130002e+00
130 2 4.7502351081520000e-01 5.2525686494260002e+00 3.5491190075989998e+00
131 2 8.6368071792599999e+00 6.6013234350400003e+00 1.0142820217490000e+01
132 2 9.4902269080230006e+00 8.7226304833419999e+00 9.5676184454390008e+00
133 2 7.9257468106009998e+00 1.0178884773340000e+01 2.0829636548570001e+00
134 2 6.4183406297580001e+00 1.1865873053340000e+01 2.6555639237630002e+00
135 2 8.5946342015510009e+00 1.7396676229850001e+00 1.2125521656329999e+01
136 2 6.8645537671360000e+00 2.2234146002810001e-01 1.2407611125840001e+01
137 2 3.6922716377449998e+00 4.0878654159400002e-01 2.2217849815060000e+00
138 2 2.9414253429040000e+00 1.5432943595839999e+01 3.1950377503540001e-01
139 2 5.4622720591230002e-02 9.6689209917099994e+00 1.0742651018749999e+01
140 2 7.7181056599800002e-01 1.1560987831629999e+01 9.6636695502660004e+00
141 2 1.6072059631310001e+00 1.2293038860950000e+01 1.2766511126950000e+01
142 2 3.8828169553710001e+00 1.1738803514320001e+01 1.3128614627930000e+01
143 2 1.3780432295360001e+01 5.3430836568849998e+00 1.2777401863510001e+01
144 2 1.2226294817379999e+01 5.9756494324589999e+00 1.1159035640920001e+01
145 2 1.3874005865499999e+01 9.5507427742520008e+00 4.2216775596380002e-01
146 2 1.3142018648880001e+01 8.4207886908770000e+00 1.4743696391580000e+01
147 2 1.3747401868230000e+01 9.4506576822490000e+00 6.6558991668980001e+00
148 2 1.4545211388289999e+01 1.1502426749200000e+01 7.5812530079330003e+00
149 2 4.7059998481180001e+00 1.7528168212549999e-01 6.2288282713219996e+00
150 2 4.5720073582280003e+00 1.6071034947369998e+01 8.5690271998499998e+00
151 2 3.0145020889190000e+00 1.1644520078250000e+01 3.2629981794220000e+00
152 2 3.0631025862530001e+00 1.3959679070529999e+01 3.5796378578930002e+00
153 2 6.9364416543390002e+00 7.5762300000470004e+00 1.3418742469780001e+00
154 2 7.1301775997960002e+00 6.3681279594619999e+00 1.5504889613930001e+01
155 2 6.2621645420579997e+00 1.3469226860260000e+00 1.7748916915030000e+00
156 2 6.6660605902779997e+00 -9.3080342202950000e-02 3.6032730284970000e+00
157 2 1.0037324495329999e+01 1.5865677920240000e+01 1.3977626586410000e+01
158 2 1.2179405462380000e+01 1.4889806444130000e+01 1.3917729809870000e+01
159 2 5.9108433947180004e+00 9.0556279355220006e+00 1.2260216809079999e+01
160 2 7.3474609439130001e+00 9.6516775779370008e+00 1.4076119429529999e+01
161 2 4.5454277984360001e+00 9.7685163213319992e+00 9.3267355856050003e+00
162 2 2.6523811086530000e+00 8.3704988557890001e+00 9.4218401226940003e+00
163 2 5.0999336629669996e+00 6.1230735590030001e+00 9.7404841060519995e+00
164 2 5.9127131439039999e+00 3.9599106598490001e+00 9.8409372831130000e+00
165 2 7.9056166495499998e+00 7.5765608813540002e+00 6.6632531849239998e+00
166 2 8.7876693695739991e+00 9.6993215561199992e+00 6.2909402485810002e+00
167 2 3.1030191527150000e+00 1.5010217803780000e+01 1.3589723600999999e+01
168 2 1.8378608414549999e+00 7.7900053244610001e-01 1.3896751044749999e+01
169 2 8.8571838824520004e+00 7.1349412500740002e+00 1.2904025722280000e+01
170 2 9.2683444952249996e+00 4.8573202121170000e+00 1.3420124494090000e+01
171 2 1.5387283373660001e+01 1.0602061310810001e+01 3.1700624851660000e+00
172 2 7.4896667805340000e-01 8.9716697930309994e+00 2.4831953536959999e+00
173 2 1.2555411399350000e+01 1.7312653681840000e+00 3.1849837151039999e+00
174 2 1.1547138055020000e+01 3.3614786977110001e-01 1.6108722899040000e+00
175 2 2.0815861832730000e+00 5.2804346280149996e+00 1.0275854227749999e+01
176 2 3.6502235315109999e-01 6.7131912433360004e+00 1.1057064078660000e+01
177 2 7.4135285911539999e+00 1.2559367831970000e+01 1.0746882702800001e+01
178 2 8.8291624438650000e+00 1.3137336322179999e+01 1.2524527715420000e+01
179 2 3.8626999553060002e+00 2.0477308305399999e+00 1.0699397189780001e+01
180 2 3.1799471882120001e+00 3.1318931813659998e+00 1.2651642514400001e+01
181 2 4.5177887148050004e+00 1.4139845985879999e+01 1.0778214810890001e+01
182 2 3.6886215317820001e+00 1.3410442765490000e+01 8.7080471897620004e+00
183 2 5.6742668244059997e+00 3.0282043684620001e+00 1.4824960666910000e+01
184 2 3.8261804513650000e+00 2.1745793307130001e+00 1.5959923445679999e+01
185 2 3.3555102384039999e+00 5.1528697110000001e+00 6.5774280467019999e+00
186 2 3.2292295603409999e+00 2.7893844110839998e+00 6.5598215021349997e+00
187 2 4.4102637801149998e+00 4.9997329640199997e+00 1.6312647008109999e+00
188 2 4.6913314239180002e+00 3.5072211866759999e+00 3.4233339013860000e+00
189 2 8.2085024411269991e+00 4.4484073328750000e+00 1.3372234192579999e+00
190 2 8.8960269777400001e+00 2.4557405764069999e+00 3.2213551276030000e-01
191 2 1.0036240115009999e+01 1.2517371874700000e+01 3.0598885817190000e+00
192 2 1.0718405077320000e+01 1.3994261343980000e+01 4.7531842981440002e+00

Velocities

1 5.3590464920210001e-01 3.9150841655469998e-01 6.9816459786910001e-01
2 -4.5792326779749999e+00 -2.1769582351970000e+00 2.7635615605870001e+00
3 -5.2744628658419996e+00 -4.6765485313410000e+00 -2.7540591308160001e+00
4 8.4989714626580000e+00 -5.9064123801059999e-02 -2.8791628618630001e+00
5 4.4135214353109999e+00 -6.2576974408180002e+00 -5.0596290352790003e+00
6 -3.9686917530030001e+00 -1.0375786633800001e+01 1.8668361230899998e-02
7 2.0150613047469998e+00 2.1023451667230000e+00 1.8309481203400000e+00
8 1.3502896364779999e+00 -1.8114236596169999e+00 -2.8455806827890000e+00
9 3.3858047499740000e+00 1.0043516388210001e+00 2.1107761136169998e+00
10 -2.0617554985730000e+00 1.9094537469400000e-01 3.5072022936590003e-01
11 1.7769806344760000e+00 -1.8335288217540000e+00 -6.5295252071189998e+00
12 -8.7789868497740002e+00 -7.9232764195260000e-02 1.1940538561909999e+00
13 3.8418728748400000e+00 8.7649048186660004e+00 -1.7087439097790000e+00
14 7.6981243802480002e+00 -5.1957390771450003e+00 3.3223539243700002e+00
15 8.6251611965359998e-01 -5.2706626160390000e+00 3.3586600532210000e+00
16 -1.0580917719940000e+01 3.1379826440269998e+00 4.5409056904820000e+00
17 2.2790898873860002e+00 -4.6718321033220001e+00 -5.7961112438809996e+00
18 -1.1723102575150000e+00 -1.5551706177419999e+00 1.3632370567340000e+00
19 -4.1908915484989997e+00 -2.2632121220410002e+00 -2.8442600695030000e+00
20 2.1638595012969999e+00 1.3143776478889999e+00 -9.0631642237860000e+00
21 -1.5228609909499999e+01 -1.0850929338360000e+00 -4.6454837490249998e+00
22 3.7348635850599998e+00 -3.0247926290530001e+00 -6.7947716701790002e+00
23 -2.3800185551380002e+00 -6.9167363994980002e+00 4.2457765716450000e+00
24 -4.3373401347870004e+00 4.1067468226320001e+00 -2.5310685996780000e+00
25 -2.6233923840369999e+00 -5.2455005524559999e+00 7.9805304352349999e+00
26 -1.2682647640800000e+00 3.8973538908140002e+00 -5.1662556802220005e-01
27 2.4310654262550000e+00 -1.0969123291970000e+00 3.6854515048960002e+00
28 1.6347074939840001e+00 -4.5739038108779999e+00 2.6393355544419999e+00
29 9.8482091665960003e-01 4.4912695641539999e+00 2.6414606081669998e+00
30 -1.2432085507720000e-01 -3.7814606430629998e+00 -3.6571022904950001e+00
31 -7.9492501670310001e-01 -1.0476871614179999e+00 -6.2262667240190002e+00
32 -8.7927209737650003e-01 -5.4222242775340002e+00 -7.4546718818109996e+00
33 2.3886892484820001e+00 2.9677647231990001e+00 -6.1393744987290000e-01
34 -2.7947975236249998e+00 4.2778301309179998e+00 2.7375270318029998e+00
35 -4.3738233148700001e+00 8.1400420856310003e+00 2.4536458782669999e+00
36 6.3524983113019999e+00 -9.4132916430110003e-01 1.3139329621800000e+00
37 9.0985956095820004e+00 -1.5152776170930000e+00 1.3337822266520001e+00
38 5.5508455379589998e+00 -1.8937258634170000e+00 5.2723267085729999e+00
39 1.0387768599289999e+00 -4.9202208407740002e+00 4.8616067034629999e+00
40 8.0242828786660003e-01 3.9451498514810002e+00 -1.0075057606850001e+01
41 8.1980152893780001e-01 -8.6006139303810000e-02 1.7862178350269999e+00
42 -3.4496219677069999e+00 -1.8924136354859999e+00 4.9579310811310000e+00
43 -3.3263088801110001e+00 3.8155360463960002e+00 1.4794797402200000e+00
44 -4.5672659072090003e+00 1.5581328559920000e+00 5.1028822237979998e+00
45 1.0295772205270000e+01 1.5301117422999999e+00 -5.7163081703150000e+00
46 -1.8142977381539999e-01 -2.3397602616450000e+00 -6.0759742312089999e+00
47 4.0303415790899999e+00 -6.1231983330490003e+00 -7.4910877883599998e+00
48 5.2132620674250001e+00 1.4685368820160001e+00 -2.7576936391180000e+00
49 7.2603364226769997e+00 -1.6668979484330000e+00 3.7447954138489998e+00
50 2.7733665754920001e+00 6.4191477044070000e-01 7.3017213177720004e+00
51 6.6891626018329999e+00 -3.1332743076530001e+00 1.0115358610790000e+01
52 6.2588410798220000e+00 3.9348557016500001e+00 -6.4215105041199996e+00
53 -8.7703154922780002e-01 1.1934664651769999e+00 -6.8740113788750001e+00
54 1.3510852926410000e+00 -3.9847726737540001e+00 4.5987864292160001e+00
55 -6.4894073095100002e-01 6.2704030596240001e-01 6.1726287000009998e+00
56 -7.4680717161419996e-01 -3.0044007740769998e+00 -2.9829901985050000e+00
57 6.3258052415749999e+00 -1.0304730149810000e+01 3.1182667731770000e+00
58 2.3394071001500000e-01 8.1554121695739994e+00 -5.0001060770060004e+00
59 -1.4857674681260000e-01 -1.9861177558920000e+00 -1.2172879920240001e+00
60 2.7139901653140002e+00 3.9233957060470002e+00 3.7052807444679998e+00
61 -8.3901677500820000e+00 8.8642233813229998e-01 2.1953533870130002e+00
62 -1.5017046397189999e+00 -2.2698707808019999e-01 1.0926128703700000e+00
63 -9.2927164014450003e-01 5.3977648762830004e+00 4.2634509564770001e-01
64 -6.9436921593959999e+00 -5.7144222056679999e+00 5.0405870970870004e-01
65 -1.1608318287049999e+00 -5.5110595071350001e+00 -1.4833561591950000e+00
66 3.8500937304390002e+00 -2.2196573113390001e+00 1.4405712965699999e+00
67 5.4892192762530003e+00 3.6130137161780000e+00 2.6400789932660000e+00
68 -2.9352074505690001e-01 -9.2082286709649996e-01 5.3789014933250003e+00
69 -2.7410997315949999e+00 6.6040191509339996e-01 -1.8997175228830001e+00
70 2.3602116130299999e-01 1.5771946106540000e+00 -7.2220521366460000e+00
71 -2.8691161044850002e+00 -3.5525552911120001e-01 -4.2768903762249999e-01
72 9.1725566591630003e-01 4.9412348609189998e+00 4.3174360803490002e+00
73 -2.6156551347880002e+00 3.6282428232010000e+00 2.2245259661750000e-01
74 -5.5245935533340003e+00 1.5274309412939999e+00 1.2104199424069999e+00
75 -9.6780866145110001e-01 -3.0837754632430001e+00 -2.8100360414740000e-01
76 1.4986063963120000e-01 -2.2687570803839998e+00 3.6997510267900000e+00
77 -1.5138223310429999e+00 -2.4861401532289999e+00 -3.4086336903629999e-01
78 2.2215795720189999e+00 1.6245255675360000e+00 8.6282067666539994e+00
79 -1.4764242059070001e+00 1.0887673574070000e+00 1.3826021069200001e+00
80 2.6536572101850000e+00 3.9079819305160002e+00 -2.3183833095240001e+00
81 3.1426368553469999e+00 -4.4418255104580001e-01 -5.2767438018319996e+00
82 4.8881309709799998e+00 -3.3930569340639999e-01 -7.2958244045239995e-01
83 3.3325311104930000e-01 9.6502446643089996e+00 -6.3608308220540000e+00
84 2.0174165326410001e+00 3.7924271194469998e+00 1.8820278856310000e+00
85 -1.0884913821990001e+00 -2.0279180967150001e+00 3.2630091156690000e+00
86 5.2818399248589998e-01 -4.3470524128639996e+00 -9.9575289668699996e-01
87 4.2088687294120000e+00 -5.6708692105040004e-01 8.4465616628459994e+00
88 -8.1132262816920004e+00 1.0142954349889999e+01 9.1614703865120006e+00
89 -2.9774055993180002e+00 -6.4967216320160004e+00 -1.7606104221929999e+00
90 2.9863787969570001e+00 -3.0888208077310000e+00 3.4385164022530001e+00
91 1.6716304887640001e+00 9.7777643682969995e+00 2.4413913521420000e-01
92 1.7261773565520000e-02 -5.8117164640820000e+00 3.0543745132439999e+00
93 3.1884134631909999e+00 1.8505726199629999e+00 4.2043652982379998e+00
94 1.7400809327650000e+00 8.7061549938590002e+00 -5.9976885582710004e-01
95 8.7034637549639999e+00 1.2037518197699999e+00 2.8286027151580000e+00
96 -2.3335149867620000e-01 5.0988146115520001e+00 7.7094850896000002e+00
97 9.0716561439220000e-01 3.5322691666280002e+00 -1.1504817459790000e+00
98 4.1576323056530002e+00 1.7983318290690000e+00 2.4572075854660000e+00
99 -6.3101813089330001e+00 -2.4338967478170002e+00 -5.0963693540180000e-01
100 5.2645837738739996e+00 -4.4440622860739998e+00 5.1186600194920002e+00
101 -2.4181401092860000e+00 5.9166112769429997e+00 -3.5695433378410000e+00
102 -6.2777694728380000e+00 -2.8128960802770000e+00 4.0349109623739998e-01
103 2.8780853925250001e+00 -3.7948238229709998e+00 1.2153958680079999e+00
104 3.6460490716999998e+00 -8.4534892830679997e-01 -3.5533392455250001e+00
105 5.0026685230699997e-01 -3.1527387015100000e-01 -9.4104610720659998e-01
106 5.8664520771050004e+00 1.7525305693940001e+00 -1.2892901692710000e+01
107 -3.4285938944190000e+00 -1.9200677790739999e+00 -1.2960994068060001e+00
108 -8.8978908939090005e+00 -2.0890026354210001e+00 -4.0226794253950002e+00
109 -5.7120239873890002e+00 3.0000214367279998e+00 -2.9144186269140002e+00
110 8.8013725929919995e-01 5.9651318307089998e+00 5.4632320249289998e+00
111 -4.6699157592220004e+00 4.2410382394889998e+00 -5.9208434651559996e+00
112 -1.1247416763750000e+00 8.7071840620480003e+00 8.7223427967559997e-01
113 2.1831272196690001e+00 -3.2873032323600002e+00 -5.6016721048529998e+00
114 -5.8569202619159999e-01 1.0931651429000000e+01 2.5759610366199999e+00
115 4.8358905663110002e-01 2.8720024265670001e+00 2.3481624822349998e+00
116 5.9267351412440004e+00 -3.8595805588309999e+00 -4.7083116399409999e+00
117 -4.7451471659589997e+00 -2.2701871417650001e+00 -2.9482885932200000e+00
118 2.7914080446399998e+00 1.1573224899670000e+00 -7.3659529624509998e+00
119 -9.1498728949219998e+00 5.8128201547450002e+00 -8.3653733927459994e-01
120 -3.3304267471009998e+00 -1.4506553653680001e+00 1.6876433202990000e+00
121 -1.8744282628840001e+00 -7.4166337615479999e-02 -8.2722308180980004e+00
122 8.9584635063009994e+00 -1.3005170678760001e+00 -3.8176180769269998e+00
123 2.1521097416070001e+00 9.2847060885230004e-01 4.3789149262320004e+00
124 1.4379915062280000e+00 -3.6980622817350000e+00 -2.3515925173840002e+00
125 1.2115234027060000e+01 3.9526934474460002e-01 -2.0085867750710000e+00
126 2.9955871867330002e+00 -9.7850007442090003e-01 -3.2254314588030000e+00
127 -4.2617288210429999e-01 -4.3876868219269998e+00 4.7826229229330002e+00
128 -1.7508923608350000e+00 -5.0239488576540003e-01 2.5055016133199999e+00
129 -1.5656710380220000e+00 5.2325024180099999e-01 -4.9436821468709997e+00
130 1.6567573161220001e-01 4.1433570720089996e+00 -2.8960281164890000e+00
131 3.1201820549989998e+00 -5.3411640339080002e-01 1.1021728894000000e+00
132 -5.6315371725089998e+00 -6.0654597869020002e+00 1.1586472071650000e+01
133 1.5072812244670000e+00 -6.1721431498310002e+00 4.2819191173769999e+00
134 -1.6357097628199999e+00 -6.1544774154360002e+00 -6.1161949433669998e+00
135 2.2992254220739999e-01 -1.7632144037240001e+00 -6.3405447547070004e-01
136 -8.2339106340819992e+00 2.2540190602579999e+00 -2.7499689878740002e-02
137 4.1902066825750001e-01 2.2196734053520002e+00 3.5366427139469998e+00
138 1.2884238170769999e+00 -1.2029799564280000e-01 -1.8107189165049999e+00
139 -7.9958255125960003e+00 -2.6178249816800001e+00 5.7947242842089997e-01
140 3.7723453900210000e+00 -3.0130740399870000e+00 1.9842965478329999e+00
141 -4.8940038670460000e+00 2.9579097763689999e-01 3.4765202472940002e+00
142 1.9787523005640000e+00 -2.9692004973300001e+00 3.5818649688890001e+00
143 -5.1319261449500004e+00 -3.1039706847659998e+00 -3.2778465020210001e-01
144 -7.3515113868849999e+00 -2.3818331307370002e+00 3.3348834611810001e+00
145 -2.0436156742830001e+00 -3.3341198625319999e+00 -3.1150234625300000e+00
146 4.9709270815739997e+00 4.0701779443159998e+00 3.1901776911300002e+00
147 7.6362688746650003e+00 4.2945403340489996e+00 -4.2721601342169997e+00
148 3.9715224592240000e-01 6.1064647106410002e+00 3.2576836098570001e+00
149 1.3293806470980001e+00 -4.9897565811790001e-01 -1.0287961317550000e+01
150 -9.5789573943809998e+00 2.2341164258199999e+00 -4.4886776755350004e+00
151 -9.1549085353960002e-01 2.7719854945420002e+00 -4.4405519474290001e-01
152 1.8730745531530000e+00 -7.3122338030809997e-01 3.9422741255100000e+00
153 2.5696426642179998e-01 3.1472792893629999e+00 3.0903489512440002e-01
154 7.0825875206070004e+00 -9.5857294518309999e+00 4.8125880668200001e+00
155 -1.9783597230390000e+00 5.2437465650970001e+00 3.5822444383500001e+00
156 -5.2953290326189995e-01 -1.0675332304180001e+00 -3.8257254475310001e+00
157 -6.5100665524499997e+00 5.0780047718160004e+00 -4.6095365987259997e+00
158 1.4278000184090001e+00 -3.5280020980660001e+00 1.9438604269780000e+00
159 3.9147971026840001e+00 -3.1849593654990001e+00 4.3041207038430001e+00
160 5.1813607854239996e-01 3.3984615609289999e+00 -6.2722307876689998e+00
161 4.2547614191480001e+00 -6.8597903710510000e+00 2.1549814048720002e+00
162 -6.2588434269080002e+00 -7.8644049737099997e-01 -5.3365321761229998e+00
163 -5.0845867316550004e+00 8.7924693857930003e-01 1.9223451080730001e+00
164 8.8507364342749995e+00 4.0264390115020001e+00 -2.5219391970739999e+00
165 3.7119272114079999e-01 -4.4738854904830000e-01 6.0991601524309997e+00
166 -1.5960479812830000e+00 -9.7578840661809996e-01 -5.6041173381579998e+00
167 4.2469965573380000e+00 -2.5087814582819998e+00 5.3453990095380002e+00
168 -7.0029947168300000e+00 5.0218044442320000e+00 2.9980265120180000e-01
169 -3.2221470323350001e+00 7.8737281808619999e+00 -2.1704962375669998e+00
170 6.6700740362150004e+00 -1.7793889523349999e+00 -8.4906710995140000e-01
171 -1.0859379392640001e+00 -3.5144356046690000e+00 -1.6709200342710000e+00
172 -3.3238972213560002e-02 1.9260954258330001e+00 -4.8441844559479996e+00
173 3.2478368934700002e+00 -2.7276454446640002e+00 -2.0809714571839999e+00
174 4.1087015991390002e-01 -4.6091742149170001e+00 4.0895481009069998e+00
175 2.9419800438319998e+00 5.7770640058979996e+00 2.8074447013930000e+00
176 2.4621947030009999e+00 -2.0511270365200001e+00 2.2078931617560000e+00
177 -8.9702796876959994e+00 -6.8209606393140003e+00 -3.7537776939129999e+00
178 -8.1968501372780000e+00 3.2785026443440000e+00 1.2820941391359999e+00
179 6.3160521218629995e-01 -3.8397014923259998e-01 -3.5665916709529999e-01
180 2.3519432602550001e+00 1.6984634566370000e+00 5.8829083107939999e+00
181 -3.0502040388429998e+00 -1.2033848227060000e+00 -5.8787706330270000e+00
182 3.3192682518560002e+00 1.6711862950530001e+00 6.2988186010389997e+00
183 -5.0431108769180000e+00 -5.3823330599729999e+00 -2.5487317771070002e+00
184 1.9854144175630000e+00 7.2946383431769997e+00 1.4858343632900000e+00
185 4.2156160823480002e+00 -1.4155607009710001e+00 3.8676150161159999e+00
186 7.0092711883619996e-01 2.9197634010539999e+00 -1.3196789924000001e+00
187 -7.6439013954529997e+00 5.6498981867399998e+00 1.1781795363659999e+00
188 -2.5672998990679998e+00 -1.5289081459520000e+00 -9.6379194986590004e+00
189 -5.7918109014179997e+00 -1.6189199927090001e+00 4.4865221347380002e+00
190 3.4510872159370001e+00 -7.3865333732109999e+00 1.9939729804669999e+00
191 4.0242779483869997e+00 -2.7342471123690002e+00 -2.0127089074089999e+00
192 -1.0545107264189999e+00 3.1109558510230002e+00 2.2254128298870000e+00
