LAMMPS data file extracted from NVT dump, timestep 320000, units metal

192 atoms
2 atom types

0.0000000000000000e+00 1.6195563468200000e+01 xlo xhi
0.0000000000000000e+00 1.6195563468200000e+01 ylo yhi
0.0000000000000000e+00 1.6195563468200000e+01 zlo zhi

Masses

1 12.00000000
2 16.00000000

Atoms # atomic

1 1 9.3674718421059993e+00 1.6276026447109999e+01 1.3447174972930000e+01
2 1 6.0345146569150003e+00 1.4165407421979999e+01 7.6150372573879999e+00
3 1 6.4300910186130000e+00 1.1078639134379999e+01 5.1670454318120003e+00
4 1 1.0924036310489999e+01 3.9270767584340001e+00 3.0300932311510000e+00
5 1 9.4876002544630005e+00 9.3637324091429992e+00 7.1550171761429997e+00
6 1 3.8232501549800002e+00 7.6635481206279998e-01 5.2633394332099996e+00
7 1 1.4035617891790000e+01 1.2511119429740001e+01 3.5534888340299999e+00
8 1 1.4479994084539999e+01 5.7982222613019996e+00 7.7241705227909998e+00
9 1 1.5514009292540001e+01 1.4623327396310000e+01 6.0411070187349996e+00
10 1 1.0033100534590000e+01 9.8926841549500004e+00 1.1062471362780000e+01
11 1 3.8723861852310000e+00 4.0462496489910000e+00 1.1359642987479999e+01
12 1 1.2961108601570000e+01 2.3189005390439998e+00 1.4782269216410000e+01
13 1 4.4253267094110003e+00 7.6034519611910003e+00 4.2925996674629996e+00
14 1 8.0308840194119995e+00 8.6346557932269996e-01 1.4359473933950000e+00
15 1 4.4015829717410000e+00 1.1690074298620001e+01 1.4720785052889999e+01
16 1 3.3526583458460002e+00 4.4547381876139998e+00 7.0807688473460004e+00
17 1 1.2417424500310000e+01 1.9788330176230000e+00 1.0136193396800000e+01
18 1 6.9667345078269998e+00 7.1914175176850001e+00 7.2628910229989998e+00
19 1 8.4166282823289994e-03 1.9152027136380001e+00 7.8269577733039997e+00
20 1 7.5538784171440003e+00 6.7331784169329998e+00 1.2977657560810000e+01
21 1 5.1133851990129999e+00 1.5325048831600000e+01 1.5910131464739999e+01
22 1 1.4783614705150001e+01 4.7465996286159999e+00 1.1847218571499999e+01
23 1 1.6316830607240000e+01 8.1277500660710000e+00 5.2125363818380004e+00
24 1 1.2977931539240000e+01 2.6059142811639999e+00 6.1279368551079996e+00
25 1 1.5810300340210000e+01 1.2022227775470000e+01 1.5475754901040000e+01
26 1 5.3149518304190000e+00 1.2383658924770000e+01 1.0685722197550000e+01
27 1 9.7882387653130003e+00 3.8409169709310000e+00 1.3646965216570001e+01
28 1 1.5202000222530000e+01 1.1227334395540001e+00 2.7723557254400002e+00
29 1 1.6795246861980000e+00 1.4658084290200000e+01 2.7909104186790001e+00
30 1 8.2664433855000006e+00 5.1474005815310004e+00 7.7680006854109995e-01
31 1 2.4805474105610001e-01 1.1182582902040000e+01 9.9591201770540003e+00
32 1 1.4187531485939999e+01 5.1302418992099996e+00 9.9411135986819998e-01
33 1 1.1965597581160001e+01 1.2695591991580001e+01 1.1512934264440000e+01
34 1 1.3061303293550000e+00 1.6042738301240000e+00 1.1303857408640001e+01
35 1 5.1812942979910002e+00 7.5941002588920004e+00 1.5818019458820000e+01
36 1 4.2775763352510001e+00 1.1464823385410000e+01 2.1802191885750002e+00
37 1 1.1367684646690000e+01 1.6021985874740000e+01 2.0765166825589998e+00
38 1 8.6671736477739998e+00 6.4767217956050005e-01 5.7290216586879996e+00
39 1 9.9605530251169991e+00 5.6560795393749999e+00 5.6924971289700004e+00
40 1 1.2552987993910000e+01 8.1707762879590007e+00 5.0395728867590002e+00
41 1 8.5504933588770005e+00 1.5717304124960001e+00 9.7931742005520004e+00
42 1 1.5081438122160000e+01 7.6582572429670002e+00 1.0169747101020000e+01
43 1 2.6606543776259999e+00 8.3397485772430002e+00 8.5649150551879991e+00
44 1 1.2052737347660001e+01 7.4647806657569999e+00 1.3412753937170001e+01
45 1 7.1854037968400002e+00 1.3919950458970000e+01 2.8569784420450000e+00
46 1 6.0008704648410005e-01 3.7252238617650000e+00 1.5002061691720000e+01
47 1 1.0090697078640000e+01 1.2195905568930000e+01 4.7366670876730002e+00
48 1 4.6496876875580001e-01 8.3237153287279995e+00 1.3412482037200000e+01
49 1 5.9879033046780004e+00 1.6140742622630000e+00 1.2509334569900000e+01
50 1 4.1303801254790002e+00 2.7397584049170001e+00 1.1072146967980001e+00
51 1 1.1430015747120001e+01 1.2809944291570000e+01 3.4924076104980001e-01
52 1 9.7944423517199997e-01 9.3718951331990006e+00 1.9450168856579999e+00
53 1 1.5124829672130000e+01 1.5063012396970000e+01 1.0897119795100000e+01
54 1 9.7180002022029992e+00 5.5342226169369999e+00 9.6743728791789998e+00
55 1 2.8309859378439999e+00 1.1931232449259999e+01 5.7321268522439999e+00
56 1 2.5073798473269999e+00 1.4897066423729999e+01 9.3643214092020006e+00
57 1 5.1109599681629998e+00 9.0298944124390008e+00 1.1918669294250000e+01
58 1 1.3047089739040000e+01 1.0586855956650000e+01 8.1827287688820007e+00
59 1 2.2543147064840001e+00 1.4636306770819999e+01 1.3440119641490000e+01
60 1 9.6221656116670005e+00 1.1168975102010000e+01 1.4433159505320001e+01
61 1 1.3485900331180000e+01 8.8267849076269993e+00 1.1769498085970000e+00
62 1 1.0627239342639999e+01 1.3917394346320000e+01 8.3352870236219996e+00
63 1 1.8888623291200000e+00 3.8066185863260000e+00 3.8183982390420002e+00
64 1 1.5494466012140000e+01 1.5677410474180000e+01 1.5709200915660000e+01
65 2 9.8793546183639993e+00 1.0855026780110000e+00 1.3584143495819999e+01
66 2 8.8429386723639993e+00 1.5256364323090001e+01 1.3207292993590000e+01
67 2 6.7098585570650000e+00 1.3896039435060000e+01 8.5131141464110005e+00
68 2 5.2837809431389999e+00 1.4381753646600000e+01 6.7121523535680003e+00
69 2 6.2311497037489998e+00 1.1904409141000000e+01 5.9626019734200000e+00
70 2 6.5951044838920003e+00 1.0281398702720001e+01 4.3278282468920004e+00
71 2 1.0537789109920000e+01 3.3113275695739999e+00 3.9910334656669999e+00
72 2 1.1267812866800000e+01 4.5295830817070000e+00 2.1236724246729999e+00
73 2 9.2775938589209996e+00 9.9699622238270003e+00 8.1013091921030007e+00
74 2 9.7315587855150003e+00 8.8200416352960005e+00 6.1185290833910004e+00
75 2 4.3642381631009997e+00 9.2912374450919999e-01 4.2344802581770002e+00
76 2 3.2733669703960002e+00 4.5685282472790001e-01 6.2621464652820000e+00
77 2 1.3780229832470001e+01 1.3567971875530001e+01 3.0894690821680002e+00
78 2 1.4174982902289999e+01 1.1572030213120000e+01 4.1975579767670004e+00
79 2 1.3940108848019999e+01 6.6168196133530000e+00 7.0585863299179996e+00
80 2 1.5029227288570000e+01 5.0109050993139999e+00 8.4086734063939996e+00
81 2 8.3787972471820002e-02 1.4086341636760000e+01 5.3284831938470001e+00
82 2 1.4732859060439999e+01 1.5111301098040000e+01 6.7443051350259999e+00
83 2 9.0363288249759997e+00 9.6882295858689993e+00 1.1659553008870001e+01
84 2 1.0930118895810001e+01 1.0026018829370001e+01 1.0380555280530000e+01
85 2 3.1205667548529998e+00 4.1341622929910002e+00 1.2309832981910001e+01
86 2 4.5675368140510004e+00 4.0342020971119998e+00 1.0401347819050001e+01
87 2 1.3614414931730000e+01 2.2517989315840001e+00 1.3765080224729999e+01
88 2 1.2459506727839999e+01 2.2082857518260002e+00 1.5834191373490000e+01
89 2 5.3310317168139996e+00 6.8943358184020003e+00 4.2133308636180002e+00
90 2 3.3706089921859999e+00 8.1582651967380002e+00 4.2532387461800001e+00
91 2 9.0417313625319995e+00 8.5358691338930004e-01 8.3391710471119995e-01
92 2 7.0997309039680001e+00 6.9984175285829997e-01 2.1537551010049998e+00
93 2 5.1880995721440000e+00 1.2163671911700000e+01 1.5472801208530001e+01
94 2 3.5952475211540000e+00 1.1249305611330000e+01 1.4009927385030000e+01
95 2 2.2259055316940000e+00 4.5370835081749998e+00 6.8013790720390004e+00
96 2 4.5484831899570004e+00 4.3539520268920002e+00 7.1229651526440003e+00
97 2 1.2266843284829999e+01 8.4582478906320002e-01 1.0411344462840001e+01
98 2 1.2671988577420001e+01 3.0946716538939998e+00 9.8064912660460006e+00
99 2 7.4217793817639999e+00 6.2068722221390003e+00 7.7362769827870004e+00
100 2 6.4982484396239997e+00 8.1901696969509992e+00 6.8872787142489997e+00
101 2 1.5363322697290000e+01 1.8114223540270000e+00 8.6502256091969993e+00
102 2 7.8950691461279998e-01 1.9979206685530000e+00 6.9898898594750003e+00
103 2 7.9320562240939996e+00 7.4973236428809997e+00 1.3780577255890000e+01
104 2 7.0935011688490004e+00 5.9761985862579996e+00 1.2194331434560000e+01
105 2 4.4846071626580004e+00 1.4674631019310000e+01 4.0468415529540003e-01
106 2 5.8505925356219999e+00 1.5851641884890000e+01 1.5167871336839999e+01
107 2 1.5720369499340000e+01 4.1407846100069996e+00 1.1415088150190000e+01
108 2 1.3785078617850001e+01 5.2780180041089997e+00 1.2201640196920000e+01
109 2 6.5372957509700003e-01 7.5445644109529999e+00 6.0268375284819999e+00
110 2 1.5791563276370001e+01 8.8158629361460008e+00 4.4098340543369998e+00
111 2 1.2555213128380000e+01 1.5286071941880000e+00 6.2099048679360003e+00
112 2 1.3343273673020001e+01 3.7135262598329999e+00 6.0846727348960004e+00
113 2 1.4953940123660001e+01 1.1209563499590001e+01 1.5447073690290001e+01
114 2 4.6695087873609997e-01 1.2760411643919999e+01 1.5397447027720000e+01
115 2 6.2440279127569998e+00 1.2223065737660001e+01 1.1338482376520000e+01
116 2 4.2594184094319996e+00 1.2602351025850000e+01 1.0161071871480001e+01
117 2 1.0749657050630001e+01 3.7756310126880002e+00 1.3004634072140000e+01
118 2 8.8475547239850005e+00 3.7439486682090002e+00 1.4335267153169999e+01
119 2 1.5785612475720001e+01 3.2319119342160002e-01 2.1329829778809999e+00
120 2 1.4500826251720000e+01 1.7897436378010001e+00 3.4036878549080001e+00
121 2 1.9236562776290000e+00 1.5670141073290001e+01 3.3784317840200000e+00
122 2 1.4846351972859999e+00 1.3694916060330000e+01 2.1363520727720000e+00
123 2 7.6331453455989999e+00 4.1916513402950004e+00 1.0412910407739999e+00
124 2 8.7100719879880000e+00 6.1613220514040004e+00 3.0602445419699997e-01
125 2 3.5139018620020002e-02 1.2041759334309999e+01 9.1762410590329999e+00
126 2 3.6925731574870002e-01 1.0360504884659999e+01 1.0778610171740000e+01
127 2 1.4028058017479999e+01 5.3510072742229999e+00 2.1384859269000001e+00
128 2 1.4152814567720000e+01 4.9247666635540002e+00 -1.6909778867920000e-01
129 2 1.0956456608570001e+01 1.3217514831700001e+01 1.1146939030390000e+01
130 2 1.2969665128440001e+01 1.2234589366950001e+01 1.1874136942960000e+01
131 2 9.0313559106230001e-01 1.0894404771580000e+00 1.2309232807540001e+01
132 2 1.6409776731729999e+00 2.0683302999760000e+00 1.0282076921630001e+01
133 2 4.9518336300070001e+00 6.4537204602409997e+00 1.5893093285530000e+01
134 2 5.4875306320460000e+00 8.7251595034430007e+00 1.5709148262370000e+01
135 2 3.8322066038229998e+00 1.0648575387750000e+01 1.5177449285210001e+00
136 2 4.7343356250920001e+00 1.2154730259510000e+01 2.9728562280339998e+00
137 2 1.1561366520729999e+01 9.6181719422390000e-01 2.3338246983910000e+00
138 2 1.1043624924740000e+01 1.4938050176060001e+01 1.9168295272839999e+00
139 2 9.8138050117250000e+00 4.1594712953879998e-01 5.8456652024059998e+00
140 2 7.5138011171720001e+00 8.5965987815500000e-01 5.6089669592330003e+00
141 2 9.2728131928150006e+00 5.8301880394459999e+00 4.7378485008590001e+00
142 2 1.0748453549970000e+01 5.5311475084490000e+00 6.5887590507800002e+00
143 2 1.2563136674160001e+01 7.1230460881480004e+00 4.5225989863500002e+00
144 2 1.2508343853480000e+01 9.1990345868090007e+00 5.6151384586499997e+00
145 2 8.6884877579279998e+00 1.1050951653009999e+00 1.0846004462480000e+01
146 2 8.3106708266990008e+00 1.9957719761629999e+00 8.7475412590820003e+00
147 2 1.4136941959180000e+01 7.7178828135090001e+00 1.0863975608610000e+01
148 2 1.5991289534130001e+01 7.4542783613820003e+00 9.4445864496590008e+00
149 2 3.0837181920240000e+00 7.2488433180350000e+00 8.7135925426699998e+00
150 2 2.3006738502439998e+00 9.3823041114420000e+00 8.2068818962299996e+00
151 2 1.2986893539650000e+01 7.4809870668049996e+00 1.4096752096159999e+01
152 2 1.1162792171680000e+01 7.5619343221440003e+00 1.2635235519769999e+01
153 2 7.8338630993080001e+00 1.3327085232020000e+01 2.0599065044409999e+00
154 2 6.5806582122890003e+00 1.4516505792349999e+01 3.6394187333049999e+00
155 2 5.5696915180149997e-01 2.7791492484729998e+00 1.5705202053010000e+01
156 2 8.2332809582160005e-01 4.6215297676120004e+00 1.4245750433410000e+01
157 2 9.0102656255919999e+00 1.2242041302710000e+01 5.2356711319500002e+00
158 2 1.1202641104190000e+01 1.2204873463049999e+01 4.3387119455800001e+00
159 2 2.9756052094809998e-01 7.4477633398560004e+00 1.2620398324090001e+01
160 2 6.8374196628119999e-01 9.1699170543370006e+00 1.4191723592120001e+01
161 2 6.7061123282140001e+00 2.3082820920330001e+00 1.3168311551250000e+01
162 2 5.4466852925670004e+00 9.8013076703019997e-01 1.1660330321249999e+01
163 2 4.9993513869779997e+00 2.0026827765970001e+00 8.5542730143599999e-01
164 2 3.2962203061570001e+00 3.5211883716169998e+00 1.3559134797300001e+00
165 2 1.1265465945170000e+01 1.1993890273400000e+01 1.1400864339279999e+00
166 2 1.1586628808510000e+01 1.3572915801750000e+01 1.5683627222589999e+01
167 2 3.9686380384650000e-01 1.0395803175030000e+01 2.3011446678750000e+00
168 2 1.3075296806020000e+00 8.2772778296039995e+00 1.6504751989710000e+00
169 2 1.5942367431899999e+01 1.4832273367050000e+01 1.0085333524110000e+01
170 2 1.4322442729930000e+01 1.5312874506749999e+01 1.1746716939420001e+01
171 2 9.6808179646580008e+00 6.6894774870629998e+00 9.9793612929689992e+00
172 2 9.7146105097220001e+00 4.4255555960650002e+00 9.2951985765629992e+00
173 2 3.6035757140450002e+00 1.1915053987849999e+01 6.5970450777760004e+00
174 2 2.1306899146720002e+00 1.1911824144340001e+01 4.7878579614100003e+00
175 2 2.2356888911709998e+00 1.4511581754310001e+01 8.2708315362389992e+00
176 2 2.8659579451299999e+00 1.5249138112710000e+01 1.0445590214259999e+01
177 2 4.7698474068310004e+00 9.1509204466170004e+00 1.0798964394170000e+01
178 2 5.5135362229869997e+00 9.0713660455660001e+00 1.3026038527700001e+01
179 2 1.3800874452570000e+01 9.6996159077040005e+00 8.4229899462609996e+00
180 2 1.2462827572300000e+01 1.1533945051020000e+01 7.8508516162240003e+00
181 2 1.4853271312070000e+00 1.3883945702629999e+01 1.2970923460410001e+01
182 2 2.9957149804780001e+00 1.5426363169880000e+01 1.3911186669170000e+01
183 2 1.0247693773940000e+01 1.1764750608610001e+01 1.3649767184890001e+01
184 2 9.0930673211009996e+00 1.0529020255230000e+01 1.5277395504559999e+01
185 2 1.2759365558730000e+01 9.5109240536250006e+00 1.7780601574460000e+00
186 2 1.4304154151360001e+01 8.1542720194109997e+00 6.4139894007279996e-01
187 2 1.1703972020280000e+01 1.4297351110779999e+01 8.0228216442459992e+00
188 2 9.6075167205710006e+00 1.3442211111150000e+01 8.6429578183690001e+00
189 2 2.1614358946440002e+00 4.8966992359950003e+00 4.2043039898409997e+00
190 2 1.4676956307919999e+00 2.7618986568490000e+00 3.4734566224710002e+00
191 2 4.9185924424510002e-01 1.5787547922180000e+01 1.5648371058620000e+01
192 2 1.4335278400280000e+01 1.5472969746080000e+01 1.5875634048700000e+01

Velocities

1 -6.6095419116330003e+00 4.7795645310720003e+00 4.8240924930120004e+00
2 -2.2431633240490001e+00 -6.4242442510029996e-01 1.6324256648300000e+00
3 -9.6758994063100001e-01 -8.7328721753220009e+00 -2.6981810511919999e+00
4 3.1831266792889998e+00 2.7036978632660000e+00 -1.6830311045830000e+00
5 -4.4539116369530003e+00 1.2121855204759999e+00 4.0187849577149999e+00
6 2.7036866596850002e+00 -1.7394865920139999e+00 2.1826279083080000e+00
7 -2.0074156780440000e+00 5.5667270552129997e+00 2.4902554960460002e+00
8 -5.8511290448239999e+00 -7.0708390494079998e+00 -7.0760954825500004e+00
9 -9.1517710351280002e+00 -4.7170156828429999e+00 -7.1124774859629998e+00
10 -2.7952481404400000e+00 -6.9092027042579995e-01 -2.0501087208620001e+00
11 1.0380605793050000e+01 8.4281256959899995e+00 -1.1973731443569999e+00
12 1.1353971166920001e+00 2.3270466006430000e+00 -6.6223001291840000e-01
13 -4.9525794790579996e+00 4.5508844394879997e+00 5.1335235782139996e+00
14 1.2522043639800000e+00 -1.2069148678630000e+01 2.3141790078829998e+00
15 2.0150310226600001e+00 1.7465085172510000e+00 3.1916847934999999e+00
16 -4.2167776383959996e+00 3.9155440205060001e+00 1.1934698241260000e+00
17 -2.3868995650579999e-01 9.7249171054750008e+00 -3.3632191370609998e-01
18 -1.8394766799280000e+00 -1.8272483340829999e+00 -2.4221589627980000e+00
19 -2.1310581623060001e+00 -1.8349134801360001e+00 5.0248810041720002e+00
20 -7.9001201741819997e+00 1.7896191683790000e-01 -8.6695713980879996e-01
21 2.3754098166420001e+00 -3.8791681116530001e+00 1.9789996343000000e+00
22 2.9542864013909997e-01 -4.1327709173729996e+00 -2.2921541118089999e+00
23 6.8171811548690000e+00 -4.0524175318709998e+00 -1.5960170717640001e+00
24 -4.7761838738910001e+00 2.0462481666360000e+00 1.2031151384380001e+00
25 1.2215648249360000e+00 -2.4158672041550000e+00 2.0450453029080000e+00
26 2.0872100849049999e-01 -5.3080397534390000e+00 2.7150016067660001e+00
27 -1.5649743005810000e+00 1.0275939463200000e+01 -3.1463213530920000e+00
28 -2.9105289003689999e-01 2.4245457242080000e+00 -2.7255237055260002e+00
29 3.1365276899640002e+00 -8.7000447689989997e+00 8.0449837400629995e+00
30 6.2491514483469999e+00 6.5567550536819993e-02 5.1627127662329997e-01
31 -1.2511498470219999e+00 7.6479383567869998e+00 5.1729643905129996e-01
32 -1.9380575868600001e+00 5.4441618978159996e+00 -5.7186641912449998e+00
33 -8.1440791183259993e+00 4.5866067678920004e+00 -1.4439656316739999e+00
34 -2.4267454962630000e+00 3.1761353544380002e+00 1.4163173835380001e+00
35 -8.4844363920750006e+00 2.2868379753640000e+00 3.4146149447749998e+00
36 6.1644193661830005e-01 3.4417914157700000e+00 4.0422402197300000e+00
37 4.8782488073929997e+00 -2.1337588358200001e+00 -2.0767849666070002e+00
38 -2.1653577525520000e+00 -1.9684652422119999e+00 -2.9292980929260000e+00
39 -3.1579208533390002e-01 5.0144876221930001e+00 -1.8850978365359999e-01
40 3.2506555525669998e+00 -4.3522823361559997e+00 3.0020327188249998e+00
41 -7.5295917680270001e+00 5.2251230125900001e+00 -5.5649113646579995e-01
42 8.6434771474810006e+00 -5.8183877170510003e+00 1.2850979161200000e+01
43 3.9970909502100000e+00 -2.1579618801740001e+00 -2.2672284619080001e+00
44 -2.4096217375259998e+00 -2.9011225511320000e+00 -1.4074990449320000e+00
45 1.8704392311889999e+00 3.1729022789429999e+00 1.6519853599459999e+00
46 4.5600064774530003e+00 4.2470916505869996e+00 -7.6317169892500003e-01
47 -8.3136271328289997e+00 -1.6954441583390001e+00 -2.8625960095790002e+00
48 5.8596531868380000e+00 4.5536983471100001e-01 7.0663317965290000e+00
49 -4.0305591319599996e+00 -4.0803617316210000e-01 -9.6286407174949993e+00
50 -2.5692542633150000e+00 -1.5730404607420001e+00 5.9196984128010000e+00
51 7.7921214314019993e-02 3.7516544278840001e+00 -6.4351965703070002e+00
52 -4.3595250486000001e+00 7.1850029747250002e+00 -1.7845096543560000e+00
53 1.4841745625809999e+00 3.1706604587050000e+00 -4.6359630716630001e-01
54 -1.6624434384939999e+00 -1.1312086390859999e+00 -3.7453249706210001e+00
55 2.2028765645060000e+00 1.8475122340040001e-01 2.3016410104000000e+00
56 2.8710722868400000e+00 4.1292374474939999e+00 3.8081052066640000e+00
57 -2.8022291117749998e-01 4.5139019808960001e-01 3.1920355956340001e+00
58 1.3155299449690001e+00 2.4787437993600001e+00 -5.4208815064889997e+00
59 9.2805575695219999e-01 -6.9391573432879996e+00 -3.4215959978530002e+00
60 -6.8628299517880000e+00 -4.1357266110979998e+00 1.8875115750860001e+00
61 2.3247639704899998e+00 4.4352299888589997e+00 -2.8547574470480002e+00
62 4.8683048211370004e+00 8.2015155398960005e-01 4.4035073519939996e+00
63 3.5218772773190001e+00 -2.6525522747069998e+00 5.1553319762370000e+00
64 8.1533364063710003e+00 2.3717650982920002e+00 -3.0672729387960000e+00
65 1.9797608004309999e+00 -5.4265036506379998e+00 -5.0267958406859998e+00
66 1.8456487151290000e+00 6.0162308956489996e-01 8.3820484038849994e+00
67 -3.9019907006599999e+00 -2.3248848646889999e+00 5.1126398694679998e-01
68 -4.5822928594089998e+00 3.5132486081500001e+00 -3.7940893153049999e+00
69 -2.6816053496599999e+00 2.7877635253830002e+00 2.0807527956229999e+00
70 8.0739004893870003e-01 2.8313997817729999e+00 -4.2227656982689998e+00
71 -7.9729131392529995e-01 -7.9246688580160001e+00 -9.0854519833320005e-02
72 2.7045823778760001e+00 -8.6747164290650005e+00 7.7808445441950003e-01
73 4.6982149263270001e+00 3.2666962506210000e+00 9.9360908084550004e-01
74 -3.7883000021140001e+00 -2.6852712525130000e+00 -6.6412612796439996e+00
75 -3.9079738470810002e+00 2.9869775561690002e+00 1.3132551614610000e+00
76 1.1112326433040001e+00 2.4093422866459999e+00 -6.5682742669540000e+00
77 3.4501606053809999e+00 -2.0183964568850001e+00 3.2841624683880002e+00
78 6.2505296935700005e-01 5.1349863467520001e+00 5.4198723477129995e-01
79 -4.6551149522879998e+00 1.9234737526420000e+00 4.7480493472059999e+00
80 -4.0133732491309999e+00 8.3667421803480000e+00 -5.5310779717410004e+00
81 2.8551045380100000e+00 -9.2683837191859997e-01 2.8770389708040001e+00
82 -1.9052215488449999e+00 2.4633699542910001e+00 1.2004861515170000e+00
83 4.5969703212850002e+00 -8.2257472341060005e+00 4.5592583194340000e+00
84 1.9664873951130000e+00 1.2551982118430001e+00 4.3366544225450001e+00
85 4.5780164307280002e-01 -6.4656686114670003e-01 -2.0588720590370002e+00
86 -1.3932131046309999e+00 -1.0348047176780000e+00 -4.3029557454400003e+00
87 -7.8269152665309996e+00 5.1180468096920002e+00 -1.3101758886199999e+00
88 6.8883653183950004e+00 -1.8813488725790001e-01 1.4029744795170001e+00
89 -3.4278057269449998e-02 3.2295376387529999e+00 -1.0437666545950000e+00
90 2.0941133774980001e+00 -2.1185939409299999e+00 2.3130174200079998e+00
91 1.8921802940629999e+00 2.4042660933750001e-01 3.0549600461089999e-02
92 4.1060642611789999e-01 -2.9569459761610002e+00 -2.1039463783980001e+00
93 1.4943205963410000e+00 -8.4255496127280001e+00 -5.9119940665059998e+00
94 3.6790205876709998e+00 -2.0620862395869999e+00 -6.3965785357060003e+00
95 2.1112689020830002e+00 -8.4659008246660008e+00 -7.2920105892300002e-01
96 -5.0749581675739996e+00 2.5494050215730000e+00 -8.8919836093759996e-01
97 1.8647445431380000e-02 5.0843660149990004e+00 -1.4989511652320000e+00
98 -3.0103746834890002e+00 -6.8018070521000000e+00 -5.8193985811899998e+00
99 -7.5200059294010000e+00 4.5183653782260000e+00 1.6109991991559999e-01
100 5.9599352160710000e+00 -1.5869498459489999e+00 -2.4495000993849998e+00
101 1.5423624949050001e+00 2.1508598679370001e+00 1.3488970449350000e+00
102 -2.5601952908280001e+00 -8.2396079921999998e+00 -3.9428412157810000e-01
103 3.0618741469569999e+00 -2.5862046993619998e+00 1.9706452863899999e+00
104 4.0297602569860000e+00 -5.5136013651770002e+00 -6.6818401594049996e+00
105 2.8042712598370001e-01 -4.6311718009429997e-01 -1.4720812508429999e+00
106 -2.4354244424650000e+00 4.4590971897880003e+00 -2.9492037440480001e-01
107 2.2802188239280000e-01 9.1708288141149996e-01 -5.2779755310349996e+00
108 -1.4304963165469999e+00 -1.0068418549710000e+01 3.5949339601550001e+00
109 2.5035240552000002e+00 6.8334063221890000e+00 9.9265718507629996e-01
110 -6.1477451460480004e-01 -1.2725842254790001e-01 2.8676049512059998e+00
111 -6.5989842411780000e+00 3.0086082483140002e+00 -1.5697723334910001e+00
112 3.0757277746149998e+00 -4.2604678333330002e+00 8.0406941810819998e-01
113 1.8324681456980001e+00 -8.2731187314389998e-01 3.5672075554200000e+00
114 -2.0979263926170000e-01 5.7597581964989999e+00 5.2409976019729996e+00
115 -4.2180392682930004e+00 -3.3265745348669999e+00 -3.0062486827699999e+00
116 2.3954295520060001e+00 5.7144924072650003e+00 -7.6739999383390003e-02
117 4.3032090431440002e+00 1.6310854001910000e+00 -1.1912600679100001e-02
118 4.9134319901739998e+00 9.7211457629350004e-02 1.6785706971100001e+00
119 -4.4594159992620002e+00 -3.9242895629030001e+00 3.9104302164570002e+00
120 -2.5670463652200000e+00 2.8763020500940000e+00 8.0772028890839997e-01
121 2.0860859925230000e+00 -1.5515163348180001e+00 1.9578345906390000e+00
122 3.8127405381070001e+00 1.0178145851980001e+00 -1.1470672203340000e+00
123 -3.2161897712670000e+00 1.8690643970659999e+00 6.7787547948369999e+00
124 3.1281768887960002e+00 3.1065660237040000e+00 -4.0765195207140001e+00
125 2.7189004112049999e+00 -4.5449013069969997e+00 2.7321687561069998e+00
126 6.4226707443039999e+00 7.5122669197479999e+00 1.1845245224790000e+00
127 2.5449623102899999e+00 -1.8746883753579999e+00 3.2874986620570001e+00
128 3.9988081400510000e-01 8.0261500191980009e+00 -7.8145232167990004e+00
129 -6.1101157998010001e+00 -5.0801422379440000e+00 -1.7756966345390000e+00
130 2.9820284091100002e-01 -3.4206062176369998e+00 -2.1697474068079998e+00
131 -2.2778699310190000e+00 -3.0078826776300001e+00 2.8274357866880000e+00
132 -3.1103385790879998e+00 -2.2243046484020002e+00 -6.8916654882719997e-01
133 9.3545239451650009e+00 8.2857994430040005e-01 7.1972631552250004e+00
134 8.8319504711350003e+00 -6.5287063078440000e-01 9.5688312561550006e+00
135 -8.2105013267690001e+00 -3.5469987755629999e+00 -8.6433824106419994e+00
136 -5.0849080476050004e+00 1.5020025710039999e+00 5.1288645979979997e+00
137 4.2408397255579997e+00 -2.3296424490810002e+00 -3.3069230984870002e+00
138 6.1181800784500000e+00 5.0488006810329999e-01 -8.0123751922840003e-01
139 1.2234604136180001e+00 -1.2073743399270001e+00 7.7214003529399999e+00
140 1.6954088481189999e+00 4.1273834468599997e+00 3.5853102820760001e+00
141 5.0123565387870004e+00 -1.7829529933629999e+00 1.2958900432139999e+00
142 -3.2151027780720001e+00 2.2072936724850001e+00 -1.4626216829850000e-01
143 -1.2189738937879999e+00 7.2686634021709995e-01 -3.6974685862049999e+00
144 1.3333810502310000e+00 2.1175918341740001e+00 3.6622507977369998e+00
145 -3.3340653324120000e+00 -1.0956425152250000e+00 -4.5075421654459999e+00
146 -4.8326612804150004e+00 3.2986771851759999e+00 1.7702533594480001e+00
147 -5.8503842570459996e+00 -4.2625284764269997e+00 2.9829091392370000e+00
148 1.8268708856600000e+00 -1.3723387785009999e+00 -9.4003124210199995e-01
149 -4.3696486489000002e+00 1.0135170049910000e+01 5.9341778525309996e-01
150 -5.1576716454520000e-01 -3.2561339821459998e+00 -4.2395297227529998e+00
151 9.2550999208880003e-01 -1.6608340399840000e+00 -7.9783863213229997e+00
152 -4.4384609226130003e+00 -5.7141847841219997e+00 3.7111370561060002e+00
153 -9.3433310851250007e-02 2.1120248743890002e+00 -2.5529615859189998e+00
154 2.4928130012779999e+00 7.2564733301560000e+00 -3.1300811014590000e+00
155 -2.0612066767280002e+00 -4.2423536416270000e+00 1.3861913618820001e+00
156 -2.5334260218029998e+00 -1.5844119847980001e+00 4.9822301192149998e-01
157 -3.0169745703539999e+00 2.7489364763210000e+00 -6.5501804517090001e+00
158 3.9499071534739998e+00 1.9040977065980000e-01 -2.6928704252890001e+00
159 -4.3033214119879997e+00 2.5220787383690002e+00 1.7421856221900001e+00
160 -4.6510767776090001e-01 3.7862101594539999e+00 5.7508403083250004e+00
161 -3.1259808762129998e-01 7.3258069791229993e-02 6.1072240449789996e+00
162 2.5642878066780002e+00 1.1621281667009999e+00 -6.0110922434809999e-01
163 -3.0497711527400001e-01 -2.6597735498619999e+00 1.8790656811530000e+00
164 2.8651807885300000e+00 -3.4872174478029998e+00 1.7955131486160001e+00
165 5.4451374113890001e+00 4.5544304176630002e+00 -4.5807083413719996e+00
166 2.0647345173020000e+00 -3.6407600000890001e+00 7.8404896499770005e-01
167 -1.9794699757140000e+00 6.5379596383029996e+00 1.5314424732759999e+00
168 -2.6413599777569998e+00 -1.8291002857659999e+00 -1.7042217841600000e+00
169 3.0308405987020000e+00 7.5362295542830005e-01 1.2322161034970001e+00
170 3.2417269085570000e-01 -4.6062176183619998e+00 -5.9765294307250005e-01
171 5.6350838359070003e+00 -1.5565027436990000e+00 2.1145243264619999e+00
172 6.5664634245150000e-01 -1.3791469527130000e+00 -3.2007830208710000e+00
173 -6.1478157433589997e+00 1.5810602716260000e+00 2.5505439175619999e+00
174 5.7026872906639996e+00 -3.2011554742830000e+00 -9.2549305443360002e+00
175 -2.9477487787370000e+00 3.4771469089060001e+00 -2.0890848738140000e+00
176 -3.3667798043230002e-01 -7.2060586063050003e-01 1.1441453175350000e+00
177 4.2223357009029998e+00 1.2331332009130000e+00 -5.9542560678419996e+00
178 -2.3808386172799998e+00 -3.0320819631900000e+00 -1.7017223689140000e-02
179 4.0716369851790004e+00 3.6667357382360002e-02 -1.7043654457780000e+00
180 -8.3045961640150001e-01 4.7890103142709997e+00 -2.5781639025839997e-01
181 5.9645738148640000e+00 -1.4592242263299999e+00 -5.0246271644689999e+00
182 -1.0144211477970000e+00 -6.6766398469580004e+00 5.8250672021689998e-01
183 2.2971914073009998e+00 -4.0732780884519997e+00 3.8416261203139999e+00
184 -5.5213134140070004e+00 1.4932908428470000e+00 4.7562648631190002e-01
185 4.5873640406740002e+00 7.6797156319579996e-01 5.4669142467259998e-02
186 -1.1176281028210000e+00 -7.8578063720909999e+00 2.9606012627339999e+00
187 -3.6788557338049999e+00 6.3753492951909996e+00 -8.6429024696370005e-01
188 -4.4056160647980001e+00 4.7708249954260001e-01 2.8778368447660001e+00
189 -2.3071082169210002e+00 -5.2244219252770003e+00 3.4674289367490001e+00
190 2.4021330351380001e+00 -3.2151218820710001e+00 1.3711212581170000e+00
191 -2.5697511365030001e+00 3.8132392218420001e+00 -1.4163070065320000e+00
192 3.6302561065990000e+00 5.4545361164179997e+00 6.9230210587550001e-01
