LAMMPS data file extracted from NVT dump, timestep 380000, units metal

192 atoms
2 atom types

0.0000000000000000e+00 1.6195563468200000e+01 xlo xhi
0.0000000000000000e+00 1.6195563468200000e+01 ylo yhi
0.0000000000000000e+00 1.6195563468200000e+01 zlo zhi

Masses

1 12.00000000
2 16.00000000

Atoms # atomic

1 1 4.5297583002600001e+00 1.4490286212959999e-01 1.1594582623930000e+01
2 1 1.3613198028799999e+01 7.9221633189280005e-01 5.1965279133730000e+00
3 1 6.9525813972519996e+00 1.0383422286480000e+01 1.4395414740440000e+01
4 1 3.3168882505630002e+00 1.0278317238800000e+01 1.0725652842740001e+00
5 1 1.2603142305260000e+00 7.1017526193089999e+00 9.6147172678280004e+00
6 1 1.3961863583240000e+01 1.2982093641060001e+01 2.8006737863279998e+00
7 1 7.3429487843550003e+00 1.5966408645540000e+01 8.5361436574149998e+00
8 1 1.0251736960790000e+01 2.4920384006870000e+00 6.3359164413080000e+00
9 1 1.1343732630240000e+01 1.3613061944489999e+01 1.2924466901810000e+01
10 1 1.8354613266419999e+00 1.4064309041259999e+00 1.4370861465390000e+01
11 1 1.1785933804880001e+01 9.4503793735879995e+00 1.5318579845530000e+01
12 1 4.8944023118919997e+00 1.3977982950920000e+01 7.9644619976900000e+00
13 1 5.8508321222479998e+00 2.3444161453399999e+00 1.4848563361460000e+01
14 1 7.6928222404910001e+00 4.7988030010850000e+00 7.8875137093319996e+00
15 1 1.1837886532840001e+00 2.1295249428790002e+00 4.4304131334779999e+00
16 1 3.0266787188039999e+00 4.7402248363060000e+00 1.7870633010170001e+00
17 1 1.2959649840570000e+00 1.5453406818750000e+01 9.4431241114450000e+00
18 1 1.2879474155920001e+01 7.9283077199490002e+00 8.2457126594190004e+00
19 1 1.1594750144350000e+01 1.3582085982370000e+00 1.3931542597180000e+01
20 1 5.9873583960739998e+00 9.0068838625830008e+00 1.1484453045950000e+01
21 1 2.2250282067880001e+00 5.6962046494749998e+00 5.0438336540790001e+00
22 1 5.5280149742080003e+00 1.0881911880060001e+01 4.5915087434019997e+00
23 1 1.0813027581960000e+01 3.1838203774929998e+00 2.6948784710650000e+00
24 1 4.6450034743989999e-01 9.8922953068540007e+00 1.2479831753859999e+01
25 1 1.0398983873820001e+01 1.3319630071940001e+01 1.5787428180879999e+01
26 1 9.6459671843270005e+00 6.2115407661119999e+00 4.9896288865790002e+00
27 1 2.3088884865210000e+00 1.3018382911970001e+01 1.2478870348139999e+01
28 1 5.2290128917120002e+00 7.3660063099570001e+00 5.4412707654170003e+00
29 1 3.4809301258950001e+00 2.6336593188349999e+00 6.9861564171039996e+00
30 1 1.4356056119800000e+01 1.3025927662560000e+00 1.0156411680520001e+00
31 1 1.0569403596639999e+00 1.1561500756239999e+01 7.8935170342570000e+00
32 1 1.1343563523049999e+01 4.1911923934280004e+00 9.3464039642430006e+00
33 1 5.9765153514070002e-01 1.3328448014950000e+01 1.0125273539310000e+00
34 1 8.3350958479890007e+00 3.3177180995920001e+00 1.2092422825950001e+01
35 1 8.8987230772650001e+00 1.7691028693010000e-01 9.5341760695389999e-01
36 1 8.6007920209529996e+00 9.1743600024580001e+00 1.8118054474790000e+00
37 1 1.2261641644379999e+01 1.1317015953720000e+00 8.6836785698349992e+00
38 1 6.4443453486619999e+00 1.5255290102149999e+01 4.2600174101999997e+00
39 1 1.3150587573090000e+01 1.1681794873270000e+01 6.4987199104820004e+00
40 1 1.2697806407010001e+01 4.6006527055940003e+00 1.2902471777470000e+01
41 1 7.0551186649080000e+00 1.3435415095750001e+01 1.1335119645520001e+01
42 1 1.4036953535789999e+01 5.3366861430980004e+00 4.8137657342209996e+00
43 1 1.2443746562919999e+01 8.8076347977960001e+00 2.9152386328180002e+00
44 1 8.8828947894589998e+00 1.0023474466580000e+01 8.0219158223820006e+00
45 1 4.1446062030409996e+00 1.5397626658060000e+01 1.8652092001530001e+00
46 1 8.6530599974149993e+00 6.2206647057550004e+00 1.5699469440650001e+01
47 1 1.3367099408480000e+01 6.4004991049070004e+00 1.5996513007140001e+01
48 1 1.0152755650290000e+01 8.7936536651010009e+00 1.1600622639330000e+01
49 1 1.6056645545060000e+01 4.3737589161850003e+00 7.6147403292530003e+00
50 1 5.0732565928159996e+00 1.4487223461639999e+01 1.4666667972870000e+01
51 1 6.3450097625069999e+00 2.6190384167179999e+00 3.9223481611650000e+00
52 1 4.7525990948569996e+00 7.4682748099519998e+00 2.2888206511889999e+00
53 1 4.2299201350709996e+00 6.0764632646300001e+00 1.4253769351670000e+01
54 1 1.4794924734689999e+01 1.4709401490919999e+01 1.4498687182190000e+01
55 1 5.7072764987359997e-02 7.9751847510999996e+00 1.6264377963750001e+00
56 1 1.6103724034079999e+01 9.8580049979400002e+00 4.9973700342320004e+00
57 1 6.1762622775620002e-01 6.5838531455989999e+00 1.3250300654480000e+01
58 1 8.9895330356669998e+00 1.3133879797850000e+01 5.3927732854229999e+00
59 1 8.8706761980649995e-01 1.4368952753969999e+01 5.8839111393729997e+00
60 1 1.0499426003280000e+01 1.3342784866360001e+01 9.2107365442350009e+00
61 1 7.4666613633669998e+00 1.2739724492430000e+01 1.8555089904440001e+00
62 1 1.4186266757860000e+01 1.1827572884620000e+01 1.1168642973810000e+01
63 1 4.3087684644820001e+00 4.0868223263190000e+00 1.0455411294670000e+01
64 1 1.6085085448219999e+01 2.9411842644710000e+00 1.1235436724490000e+01
65 2 3.5528774126050000e+00 1.5817374985130000e+01 1.1220494563740001e+01
66 2 5.4601250963399997e+00 8.1368571483520002e-01 1.1955308714170000e+01
67 2 1.2829143914659999e+01 1.5631183268640001e+00 5.6897224087879996e+00
68 2 1.4408658486329999e+01 7.4936361183519998e-02 4.7390243283180000e+00
69 2 7.4372221894630002e+00 9.3381023750499992e+00 1.4317404760050000e+01
70 2 6.5513759434559997e+00 1.1503070341870000e+01 1.4400926702840000e+01
71 2 3.6244731871100000e+00 1.0318033681499999e+01 2.1840733299510000e+00
72 2 3.0423291014450000e+00 1.0168495871890000e+01 1.6122368403439999e+01
73 2 2.1549507179740002e+00 7.0777027889769997e+00 1.0390918531260001e+01
74 2 4.0813548146730000e-01 7.1282203912359998e+00 8.8006458496719997e+00
75 2 1.3409914284910000e+01 1.3855774129149999e+01 3.3071969872700002e+00
76 2 1.4634796986920000e+01 1.2118816461040000e+01 2.3536756076140000e+00
77 2 6.9224343930799996e+00 1.1435696253840000e-01 9.5743579586230005e+00
78 2 7.7053537454490000e+00 1.5711261143250001e+01 7.4718019900129997e+00
79 2 1.0617440697650000e+01 3.5389663426559999e+00 6.7940201236180000e+00
80 2 9.8087789707459994e+00 1.6366769958820000e+00 5.6862827910559997e+00
81 2 1.2062724861240000e+01 1.4506960431090000e+01 1.2653617086190000e+01
82 2 1.0638295664810000e+01 1.2685680214110000e+01 1.3227665266460001e+01
83 2 2.3613641816210000e+00 3.9024348688060001e-01 1.3973636561659999e+01
84 2 1.3476730352899999e+00 2.4264188253690002e+00 1.4678492764930001e+01
85 2 1.1423751984180001e+01 8.5417038313300004e+00 1.6053071824029999e+01
86 2 1.2138421605600000e+01 1.0421736546260000e+01 1.4715207306680000e+01
87 2 4.6644229495280003e+00 1.5145890857710000e+01 7.9452681209120000e+00
88 2 5.1715294342920002e+00 1.2851916876840001e+01 8.0712815328719998e+00
89 2 6.5845972270670003e+00 3.1049902413639998e+00 1.4413258670590000e+01
90 2 5.0805820759860003e+00 1.5567331456750000e+00 1.5180765450270000e+01
91 2 7.4378938646719996e+00 3.6443645672849998e+00 7.7413935366860001e+00
92 2 8.0324668133059998e+00 5.9025033557209996e+00 8.0886023125669997e+00
93 2 1.9777815789890001e+00 2.5749811585800000e+00 3.7216564083789998e+00
94 2 5.1063886622410004e-01 1.5793236800710000e+00 5.2046645006499999e+00
95 2 4.2176983611769998e+00 4.6759608071790000e+00 1.8830255624600001e+00
96 2 1.8705299461420000e+00 4.8319537586100001e+00 1.7783727492910000e+00
97 2 9.8686622047749994e-01 1.4564661386059999e+01 1.0137368935780000e+01
98 2 1.6186565548080001e+00 8.0929621067480001e-02 8.6791265844810006e+00
99 2 1.3727435428120000e+01 8.7981844376779996e+00 8.1416832895870002e+00
100 2 1.2017728038510000e+01 7.1677784929030004e+00 8.4241821814819993e+00
101 2 1.1358844846989999e+01 1.3019089357189999e+00 1.2806626929380000e+01
102 2 1.1776635219590000e+01 1.3856182274180000e+00 1.5069281620310001e+01
103 2 5.3024386854749999e+00 9.9624346791399994e+00 1.1425363092020000e+01
104 2 6.7214285676249999e+00 8.0648647947010002e+00 1.1483507711530001e+01
105 2 1.1087493031650000e+00 5.8365035870080000e+00 4.6652113782619997e+00
106 2 3.2557399339990001e+00 5.4308114439980004e+00 5.4942671126570000e+00
107 2 6.1810329976020002e+00 1.0041792834840001e+01 4.0109457197799996e+00
108 2 4.8052630063419999e+00 1.1679836934110000e+01 5.1385380525090003e+00
109 2 1.1880452607270000e+01 3.4581363092149999e+00 3.0606320072390001e+00
110 2 9.7818677447569993e+00 2.8438884918210001e+00 2.2081430119020000e+00
111 2 1.5991864888800000e+01 9.1668047309859997e+00 1.1833471796770000e+01
112 2 1.1102744769940001e+00 1.0572159596980001e+01 1.3221813617790000e+01
113 2 1.0958439365860000e+01 1.4354108711460000e+01 1.5541617606579999e+01
114 2 9.7461684212509994e+00 1.2352999995950000e+01 1.5921159326410001e+01
115 2 9.0431236836789992e+00 5.2214002051680000e+00 4.8026283469119999e+00
116 2 1.0211842244480000e+01 7.2174764784920002e+00 5.2578958535520002e+00
117 2 3.1714585353450002e+00 1.2632877731170000e+01 1.1842758836140000e+01
118 2 1.5295412403249999e+00 1.3417681520590000e+01 1.3233020338690000e+01
119 2 4.4236939844589998e+00 7.9881871763319996e+00 5.9940027989829998e+00
120 2 6.0493619891210004e+00 6.8336752030400003e+00 4.7896535875920003e+00
121 2 3.6118094951190001e+00 1.7723704719180000e+00 6.2101623127370003e+00
122 2 3.3430825522499998e+00 3.4397454406780001e+00 7.8085716854439999e+00
123 2 1.5459963725940000e+01 1.0503533891190000e+00 6.8409947095970003e-01
124 2 1.3252125050260000e+01 1.5602244712710001e+00 1.4076198130230000e+00
125 2 2.0817818232660001e+00 1.2075547183910000e+01 7.7234297650519999e+00
126 2 2.2540696201969999e-02 1.1142748185189999e+01 8.1008435744279996e+00
127 2 1.0195060658259999e+01 4.3869311895529997e+00 9.6177652713989996e+00
128 2 1.2458299458020001e+01 4.0797368449710003e+00 8.9841331886480003e+00
129 2 3.8748697799470000e-01 1.4389878157629999e+01 1.4596637063060001e+00
130 2 9.2744136366459995e-01 1.2270719030210000e+01 6.3929115374909995e-01
131 2 7.5053610236040003e+00 3.0735588659080002e+00 1.1296878797710001e+01
132 2 9.1549581052689994e+00 3.6062925248240001e+00 1.2896349256830000e+01
133 2 9.3424018839879999e+00 1.5593902902000000e+01 1.6733036910840000e+00
134 2 8.4721432995899999e+00 8.6041314308450001e-01 8.9882887954819995e-02
135 2 8.8261209909290006e+00 8.3757951149550003e+00 2.6202217753569998e+00
136 2 8.2694151500400004e+00 9.8951617371810006e+00 9.9156027045429995e-01
137 2 1.3429529658980000e+01 1.0386754017280000e+00 8.7582931340129999e+00
138 2 1.1081473828000000e+01 1.3206201123370001e+00 8.5882411549960000e+00
139 2 5.6155113716370000e+00 1.4895080927850000e+01 5.0171514771340000e+00
140 2 7.2197727252760000e+00 1.5628379853429999e+01 3.4621167175599998e+00
141 2 1.3595859099289999e+01 1.1476105792809999e+01 5.4413673850950000e+00
142 2 1.2723571185160001e+01 1.1955152236080000e+01 7.5449762886400000e+00
143 2 1.3440932432149999e+01 4.3024050205739996e+00 1.3805884259200001e+01
144 2 1.2045702756860001e+01 5.0092258970000003e+00 1.2035436091610000e+01
145 2 8.1105351176639999e+00 1.3862221412180000e+01 1.1624308476510000e+01
146 2 6.0086008437149996e+00 1.3125159718000001e+01 1.0966288606739999e+01
147 2 1.4582599086609999e+01 4.3595557659589996e+00 4.4670930208039996e+00
148 2 1.3368267658020001e+01 6.2507284518750001e+00 5.2139572253160003e+00
149 2 1.3294578914250000e+01 8.0363054493660009e+00 2.6199631683989999e+00
150 2 1.1638012682510000e+01 9.6862807721480007e+00 3.0285814014330001e+00
151 2 1.0042274639440000e+01 9.9232662021449993e+00 8.0424095598619996e+00
152 2 7.7491233191960003e+00 1.0167031072810000e+01 7.9679234491150002e+00
153 2 3.9674156261840001e+00 2.8227913150060002e-01 1.3868277663969999e+00
154 2 4.3085117660819998e+00 1.4364534387910000e+01 2.3740250773180001e+00
155 2 7.7085083660629996e+00 6.7570534038029999e+00 1.5227342652670000e+01
156 2 9.5438079362269992e+00 5.5929528518830001e+00 1.6160444770089999e+01
157 2 1.4096190987590001e+01 7.2546987274559998e+00 1.5663432745610001e+01
158 2 1.2672561452520000e+01 5.5231630790799997e+00 2.0852970093320000e-01
159 2 9.6928486037620001e+00 9.8880016228229994e+00 1.1725641652900000e+01
160 2 1.0520369861540001e+01 7.6791988087299998e+00 1.1441328233809999e+01
161 2 7.2493677590850003e-01 4.1619334048000001e+00 6.8540833364170002e+00
162 2 1.5101067126820000e+01 4.5714990163550002e+00 8.2655590607270000e+00
163 2 6.0527790808999997e+00 1.4701236490259999e+01 1.4039460911770000e+01
164 2 4.1921238550880000e+00 1.4261591301330000e+01 1.5400643870930001e+01
165 2 6.6850881310670003e+00 2.2961744486400000e+00 4.9972528696199996e+00
166 2 5.9524752302610002e+00 2.9395022469410002e+00 2.8808259502430000e+00
167 2 3.7372878013289998e+00 7.6560036504850002e+00 2.8452918121169999e+00
168 2 5.7786805901390004e+00 7.2306624125510002e+00 1.8090087800340000e+00
169 2 4.0065682800709999e+00 5.1439411098110002e+00 1.3528098440939999e+01
170 2 4.3297694370909996e+00 7.0085211074210001e+00 1.5022893968820000e+01
171 2 1.4865462746670000e+01 1.3537164486060000e+01 1.4752277132250001e+01
172 2 1.4720986140839999e+01 1.5847069174550001e+01 1.4168196856570001e+01
173 2 2.3796854596180000e-01 9.1089216898120000e+00 1.6858822752489999e+00
174 2 1.6003556162650000e+01 6.8511878539089999e+00 1.5207188849080000e+00
175 2 1.5393690240579999e-01 1.0964730997929999e+01 5.1346564147200002e+00
176 2 1.5919703276630001e+01 8.7099661164210005e+00 4.9410726105500000e+00
177 2 1.5781724953650000e+01 6.1665242974529999e+00 1.2907313176830000e+01
178 2 1.6801087837410000e+00 6.9344934428520002e+00 1.3603492893009999e+01
179 2 1.0053923393890001e+01 1.3233314792110001e+01 4.8128656175469997e+00
180 2 7.9369866668149998e+00 1.3046289607629999e+01 5.9555637857320001e+00
181 2 1.6142963638950000e+01 1.4396927408000000e+01 6.6257373417799998e+00
182 2 1.7516398333780001e+00 1.4446069098490000e+01 5.0772344866020003e+00
183 2 1.1271832461290000e+01 1.3636993073279999e+01 1.0039613810020001e+01
184 2 9.7075078122340006e+00 1.3095285427669999e+01 8.3898258915269999e+00
185 2 7.8563228832179997e+00 1.2431904051629999e+01 2.9324033448929998e+00
186 2 7.0577048648689997e+00 1.2899051067549999e+01 7.5966542515830005e-01
187 2 1.5247790816469999e+01 1.2206369824650000e+01 1.1549231107740001e+01
188 2 1.3097513657920000e+01 1.1512861911990001e+01 1.0755121694970001e+01
189 2 3.5426167987500001e+00 3.3021006954060002e+00 1.0889310885640000e+01
190 2 4.9854960579169996e+00 4.9765089595019996e+00 1.0149652044290001e+01
191 2 2.7474529367799999e-01 3.9470382064859999e+00 1.0696862163100000e+01
192 2 1.5616025311690001e+01 2.1693051177289999e+00 1.1993630777280000e+01

Velocities

1 -1.7012889262010000e+00 7.5057386235089996e-01 4.7391981474750002e+00
2 -4.4875471791679997e+00 -2.1852650899650001e+00 -7.3701618161739999e+00
3 -8.9552656071769998e-01 5.0145812521400002e+00 -3.4629472833780000e+00
4 -2.4756011245449998e+00 3.7962322645489999e+00 -2.0003973752460000e+00
5 -3.1467830730780002e+00 4.9576558448499997e+00 9.0631467302640004e-02
6 -8.9815703542650005e-01 -3.8122701381269999e+00 5.1777540806170004e+00
7 1.9610558321499999e-01 8.1313782044590006e+00 1.0911823428380000e+01
8 -4.3972401454690004e+00 1.3014829700190000e+00 2.2545130558430002e+00
9 5.6591454052539998e+00 4.7373671452139998e+00 -4.2012667975460003e+00
10 -8.1442425314579996e+00 4.0189516645729997e+00 -4.9056023005749996e+00
11 9.1155773450020003e+00 5.1547014371659996e+00 -2.8592140796619998e+00
12 1.7402195114229999e+00 1.4240840173810001e+00 -1.9519216274700000e+00
13 -3.0354879778489998e+00 1.4234445456539999e+00 -2.6581578266810002e+00
14 -1.4250851168830001e+00 4.4753192639719996e+00 -4.2892124753449998e+00
15 -4.9156557348250001e+00 2.5038676230010002e+00 3.9164005780529998e-01
16 9.3374368805970001e+00 3.6044589749039999e+00 1.0617436528750000e+01
17 7.1261331317910004e-01 -4.1736889664810004e+00 -5.3425890133939999e+00
18 -6.0459852611820004e+00 7.8759184294350000e+00 4.7232665544870001e+00
19 -1.3548005804270000e+00 -9.3211109635010003e-01 -1.1701768385230000e+01
20 5.1669811583519998e+00 2.9730547297809999e+00 1.7537716466530001e-01
21 -1.3559563188510000e+00 -5.0959338474880003e+00 5.4420859838669999e+00
22 1.1008805924880001e+00 8.0694073858229998e-01 2.2419306199309998e+00
23 -1.4028559680670001e+00 5.5403458072760001e+00 5.0404741999759999e+00
24 -1.5643978022150000e+00 -2.3495214868570000e-01 -5.8994704552070001e+00
25 4.5357568988860004e+00 -3.1838684624870002e+00 -2.5591143656940001e+00
26 -6.4435322848669996e+00 -6.2053557684190004e+00 7.5849710218790001e-01
27 3.9041965483780001e+00 4.0210257897249999e+00 3.2544327239430002e+00
28 -6.5377786751059999e+00 9.3513392036609999e-01 2.5378294506420001e+00
29 1.2394025203140000e+01 2.5511200957179998e+00 5.5846529055640000e+00
30 -2.9119187402000000e+00 2.9072822497450002e+00 2.9016042384039999e+00
31 5.3642915022549997e-01 4.2366322034449997e+00 5.2760802176440000e+00
32 -2.9836114061079999e+00 -3.4311714433280001e+00 7.9770722850759999e+00
33 6.6387942246340002e+00 -7.1585289355960002e+00 -2.8964653929550002e+00
34 -4.7608781314049997e+00 4.4329593510890000e+00 -2.2439901242990001e+00
35 5.9228442857349997e+00 -1.9309451223690000e+00 3.8914807297589999e+00
36 2.8653928679049998e+00 1.8266584549039999e+00 -2.1263451723319999e+00
37 -2.5165242131940002e+00 3.9279236746509998e+00 7.3381705231219998e+00
38 -7.5551333232140001e+00 -3.7167523953160000e+00 9.4755283109800004e-01
39 -4.4092782993700003e-01 6.3273074574050003e+00 1.0829975190340000e+00
40 6.7954918414280003e+00 5.4040173689800000e+00 -6.0912847182760004e+00
41 2.3574491429880000e+00 3.2537240469470002e-01 -6.7169827877210002e+00
42 3.6755694536240002e-01 3.6138537787720000e+00 -3.5356826637199998e+00
43 4.6811109468760002e+00 1.9474456518270000e+00 -5.5238555255900001e+00
44 4.8751599072980003e+00 -1.3994100011040000e+00 8.1403080646970007e+00
45 -3.1327316032589998e+00 2.3980853368439998e+00 -6.6180742509639998e+00
46 5.3788853234160001e+00 -1.7175945949689999e+00 -2.5056894678720001e+00
47 4.4136785146210000e-01 5.7653238253310004e+00 -1.0731343757500000e+00
48 -3.7251799721740002e+00 3.2034230251040001e+00 9.8175165875109993e+00
49 2.1645206120370002e+00 1.1185816733030000e+01 4.8827398969219998e-01
50 2.8584254079229998e+00 1.7785971804530001e+00 4.0450465822590003e+00
51 -3.3445004907510001e-01 4.1396972585040004e+00 -1.2477371088180000e+01
52 7.7591199198260004e+00 -3.2298228723059998e+00 2.6153540240119999e+00
53 3.9876606356840001e+00 3.6651110682460000e+00 1.8527928762860000e+00
54 -1.6455679068140000e-01 5.3462964546969998e+00 -2.8079115585080000e-01
55 -1.4364726147400000e+00 8.6821853294789997e-01 8.5121812183559997e-01
56 -7.7813089649349996e+00 2.4867223749659999e+00 -1.6556014513890001e+00
57 2.7500964617360002e+00 2.1828575100990002e+00 7.5067539895680002e-01
58 1.9492276235140001e-02 1.7690077404269999e+00 8.4694518183870002e+00
59 -4.7672007406479997e+00 8.2399028804990007e+00 -2.2858138483290000e+00
60 -6.5484772790910002e+00 -9.0387368030819992e+00 7.6412698929470002e-01
61 -7.1395537169479999e+00 1.3672541300750001e+00 -5.3611279391840005e-01
62 4.8598546846369999e+00 -2.4146697449109999e+00 1.5297051412529999e-01
63 -6.3920447668360003e-01 -3.8248449732470002e-01 4.8488971114470001e+00
64 9.7513304217130004e-02 -8.8001105609630006e+00 -4.7891047661560000e+00
65 3.2604747544940000e+00 -3.7794191114469999e+00 -1.1892693875200000e+00
66 -1.1194877995710000e+01 -8.5879822556070007e+00 -2.8236463199080002e+00
67 -4.1332711489780003e+00 2.3571729955500001e-01 6.2976370777839996e+00
68 6.4891179383699997e+00 2.4062984882039999e+00 1.7619325778129999e+00
69 1.5484355223910000e+00 6.6936224254979999e+00 8.4112516508049995e-01
70 4.2006206245769997e+00 6.8692524110969999e-01 -1.8831664102650001e+00
71 -1.8269051173260000e+00 4.0112640819790002e+00 2.1060472406400002e+00
72 -4.5961176983740000e+00 -6.1505757867290001e+00 -2.1128920160689999e+00
73 -9.6814197920939993e+00 1.1041170072590001e+00 9.1337721759799995e-01
74 3.6517941509440002e-02 2.0239216370960000e+00 4.3646939471300001e+00
75 3.0970592662200001e+00 4.7520530988519999e-01 -1.7686188751180001e+00
76 1.6915293793469999e-01 -2.7215975263060002e+00 1.9185962187000001e+00
77 4.7802781366799998e+00 5.7260653884430003e-02 -7.0367507716790001e-01
78 -4.8514015684230000e-01 4.7713020564609998e+00 -7.4153920926339998e+00
79 -2.2280040543310000e+00 7.0450854679520001e+00 2.2345057408939999e+00
80 4.4014400364749999e+00 2.7492087244870000e+00 -5.0295608358890000e-02
81 2.3491129754369999e+00 -3.9032050190669998e+00 -2.4978293974310000e+00
82 8.2779350123509996e+00 -2.7044088431420001e+00 5.0704909755789995e-01
83 -3.7839982201679998e+00 -3.8505549114559998e+00 -9.7451620519070004e-01
84 -2.9097189834289998e+00 3.3204778370610000e+00 4.4620891604209998e+00
85 -4.2164223911920002e+00 -2.1165625395690002e+00 -7.5955594807320004e-01
86 -7.3887210603510001e+00 -2.5667674410790000e+00 -1.4057826613880000e+00
87 -4.0321111625689996e+00 3.5088292235020000e+00 -1.0847389624649999e+00
88 -1.5568481388960000e+00 -2.2653872815540002e+00 7.7230942531859998e+00
89 2.0533105999400001e+00 -8.2012970295409993e+00 -2.6226503215940000e-01
90 -3.4419800840349999e+00 2.8027402652910000e-01 -3.3883167370740003e-01
91 -4.2659358511279999e+00 -9.3029936039920003e+00 -2.1662329719389999e+00
92 8.7531053648979995e-01 5.1623976262579996e+00 -3.5478525762539999e+00
93 -3.5917006935310001e+00 1.6484291514070000e+00 6.8981475736149998e+00
94 1.6885385426830000e+00 -9.9347665225339998e-01 -4.6231463694580004e+00
95 -3.4865210183630002e+00 -2.0192532092989999e+00 -4.6786424486830003e-01
96 -4.7745216208750003e+00 3.3316921215450002e+00 -2.7766543431930000e+00
97 6.2098421127119998e+00 -3.3764716890500002e+00 9.5641434397229996e-01
98 -5.5041916745029997e+00 7.8292128388129996e+00 -6.0376609130869996e+00
99 7.2634888306430003e+00 -1.6015304401390000e+00 3.4925358277780001e+00
100 -3.4469164547669999e+00 -6.3562006278380001e-01 -1.5398965021469999e+00
101 4.9651291713610002e+00 3.3082500768540002e+00 -3.3496251707820002e-01
102 1.5456445859800001e+00 -2.9835180200810001e+00 -3.3960098795300002e+00
103 3.0387218041150001e+00 6.1331665175619998e-02 2.0665238562239999e-01
104 1.1388205527249999e+00 3.1067021344649999e+00 -1.4317853708279999e+00
105 2.4327857170620000e+00 -2.7874065023029999e+00 -7.5713181015959998e+00
106 -1.4796999844100001e+00 5.7211573573910002e+00 3.4426082319339999e+00
107 1.3338957528900000e+00 4.7093306505510002e-01 4.3314252329430003e+00
108 1.4260433834849999e+00 -7.3379577727370000e+00 5.3452052682850004e+00
109 3.2370835224270000e+00 3.4496181589320001e+00 1.4306956754780000e+00
110 -2.2571428633580002e+00 -9.2826651317109992e+00 8.1430706641700004e-02
111 2.3556498747879999e+00 3.9082465695919999e+00 -3.2709036646390000e+00
112 -4.3053503603629997e+00 -1.7722872099450000e+00 5.3728148081829996e+00
113 8.3696516246969992e+00 7.6638767227539999e+00 6.8139323044319999e+00
114 -2.7403466691260001e+00 6.8581211949139997e-01 1.3336178746420000e+00
115 -2.5540401636940002e+00 -1.1319024983960000e+00 4.6782806754030002e+00
116 -3.2547753276560001e+00 -9.0275952182089991e+00 1.5099281206740001e+00
117 -3.4862128151829999e+00 5.2073050487390002e+00 -5.1528169344740000e+00
118 8.7276393245990000e-02 -2.8197015742720000e+00 3.5596188868700001e+00
119 1.0405146340850000e+00 -6.3149132365470004e+00 -1.2879894434729999e+00
120 -2.6010185701330002e+00 2.0299458650580000e+00 1.8930330714740000e+00
121 6.1160528885699996e+00 -9.2431201053269998e+00 -6.4532128375989997e+00
122 1.6205238966560001e+00 -3.3875398354869999e+00 -3.7901091054600000e+00
123 -2.0242028038980000e+00 -2.8149137983469998e+00 1.7074314596169999e+00
124 2.9551888175430001e+00 -2.7693814271980002e+00 -5.0176330454069999e+00
125 2.2399492146430000e+00 4.0834891866150003e-01 -3.5129394267890000e+00
126 -3.9936823091689999e+00 1.0449721698619999e+01 5.3250781070270004e-01
127 3.6632183377229999e+00 -3.9547555307419997e-02 -5.2013144231999997e-01
128 1.2321884448360001e+00 -3.6434816852480001e+00 6.5741968101810003e-02
129 4.1505061020400003e-01 -1.5018879417400000e+00 -2.8159829078400000e+00
130 4.3521642365180000e+00 -2.6637800466310000e+00 3.2782746852520002e+00
131 -4.4199511201010004e+00 -1.6902056911029999e+00 -5.8154166059159995e-01
132 -2.5461621339599998e+00 -1.0240578060170000e+01 3.8729336196949999e+00
133 -1.4496399410720000e+00 -5.0327871994819995e-01 4.6911394329159997e+00
134 2.3916040287570000e+00 1.0084502285620001e+00 7.1772749342670004e+00
135 1.5471374832730000e+00 -6.0574931792299997e+00 -4.9744914921629997e+00
136 -7.4434622349480000e+00 -3.8199519635260000e+00 -4.8072294085029998e+00
137 -1.3314645470640001e+00 3.8936556585940002e-02 4.2495548035080004e+00
138 2.7134239605290000e+00 -9.3230953320979992e+00 7.4264063776849998e-01
139 4.2136688936590003e+00 -7.6190766007509998e+00 -2.2990223927770002e+00
140 -2.9053969197620000e+00 3.8075886784900002e-02 2.8502723570290001e-01
141 -1.4678442658929999e-01 1.6725384962770000e+00 3.0546471833269999e+00
142 1.4462251111490001e+00 -3.1961892101229998e+00 -7.3879673806620003e+00
143 -8.0974849255199999e+00 1.8988661013990000e+00 -4.4662279373220004e+00
144 3.8739052790269999e+00 -8.3023723422939999e-01 -1.8238521175819999e+00
145 4.0362945020840000e+00 -4.7182876555239996e+00 7.9616153059970003e+00
146 -3.9370117411979999e+00 3.1522712885369999e+00 -9.7096919085720002e-01
147 -3.1806802549099999e+00 -2.1495692900590000e+00 2.5575979812149998e+00
148 3.3509432982899998e+00 -9.0918373918269992e+00 1.8620701482249999e+00
149 1.2757432582370001e+00 -5.1766250830849998e+00 1.7402890523360000e+00
150 -3.9080253764439998e+00 5.8057045234720004e+00 -1.9295348430410000e+00
151 -5.0389508394700000e+00 2.1445513158499998e+00 -3.6760081064110000e+00
152 -3.1935051401900001e+00 -3.3961310786290002e+00 -2.5388040533330001e+00
153 -3.4637939299560001e+00 -8.9900409712609997e-01 2.4552308398189999e+00
154 5.3448828116350002e+00 2.6578211952620001e+00 -7.4691182335030000e+00
155 -1.0263331936680000e+01 -6.3802732689609998e-01 -5.2519339429510001e+00
156 2.2532361335200002e+00 1.5351893922950000e+00 6.9960289747050002e+00
157 -1.7476406365890000e+00 2.9831424920999998e+00 -5.0129944371719999e+00
158 1.0031488316670001e+00 -3.2180780598849998e+00 -5.8537707122459999e+00
159 -4.1496177744220004e+00 1.8118173219789999e+00 -1.4057482810409999e-01
160 1.8467361960390001e+00 3.8255098079629999e+00 1.7970360692059999e+00
161 2.1534725397269998e+00 4.2669546968010001e+00 1.5436045063570001e+00
162 -2.0102252492760000e+00 3.8339479039760000e+00 -4.7494759662400003e+00
163 7.5692740904329998e+00 7.3730950128000003e+00 3.8259859007079999e+00
164 1.7423821138769999e+00 -6.1584751162359996e+00 -9.1753308830860003e-01
165 -5.8285212107520001e-01 2.3237218035830001e+00 5.8536118704050004e+00
166 5.7115251758739998e+00 -7.3856450767369997e-01 -5.3303206455129999e+00
167 9.1797158556960001e-01 1.9225910818100000e+00 2.1344845933849999e+00
168 7.1385867117049999e+00 -4.6700275089980003e+00 2.8221032951620000e+00
169 6.2780057300080001e+00 1.7528823126480000e+00 -5.4454518111420001e+00
170 -8.9937414028749991e+00 -1.8081976077730000e+00 -8.1306327196470001e+00
171 -1.0599222094850000e+00 -9.4443729212280001e+00 3.2622221970899998e+00
172 1.2398343771260001e+00 -5.5906691115739999e+00 -3.0978856404849999e+00
173 3.6802794554560001e+00 2.3055689660279999e+00 -4.7027980759780004e+00
174 3.4234638224129998e+00 2.8530446111000001e+00 -7.4867819706010001e+00
175 -7.5781255674710000e+00 7.4014638939360000e-01 3.3513544251999998e+00
176 2.3126641536390000e+00 -1.6899845833870000e+00 -4.6194319000249999e+00
177 -3.6796028125130000e+00 3.7484818609950001e+00 2.8541204189620002e+00
178 2.7634868982819998e+00 3.9520489408169999e+00 -1.6877988785039999e+00
179 5.5788887205609997e-02 -3.0643968549539999e+00 1.2320169599049999e+00
180 -1.5738032247229999e-01 2.9829493562280002e-01 1.5088778887809999e+00
181 1.3240091185000000e+00 -9.0631230982459998e-01 2.9483779805819998e-01
182 -2.1674383710659999e+00 5.0829610879970000e-01 -1.8748526126609999e+00
183 5.1823890104950001e+00 5.7040524528149996e+00 4.6471099669199996e+00
184 4.9594505548379999e+00 -3.2416269744680002e+00 5.1582404272469997e+00
185 2.7297871844679999e+00 -3.4114529513390002e+00 -1.5012026184259999e+00
186 3.5566290279850001e+00 2.2442160877770001e+00 2.9010519891000000e+00
187 6.1633523120900002e-01 -4.7475360238060000e+00 -9.0749085943929997e-01
188 -2.5295395259540001e+00 3.2399052082959998e+00 -6.2505042974769998e-02
189 5.3362640213390003e-02 -2.6561744213480001e+00 -3.2745786564610002e+00
190 -2.5069790604500000e+00 1.1855830131969999e-01 3.3941387065500002e+00
191 3.7104980952340001e+00 -1.5143884251160000e+00 4.0071213290119996e+00
192 -5.6736877929630003e-01 4.7125767995779997e+00 3.9676885072350001e+00
