LAMMPS data file extracted from NVT dump, timestep 980000, units metal

192 atoms
2 atom types

0.0000000000000000e+00 1.6195563468200000e+01 xlo xhi
0.0000000000000000e+00 1.6195563468200000e+01 ylo yhi
0.0000000000000000e+00 1.6195563468200000e+01 zlo zhi

Masses

1 12.00000000
2 16.00000000

Atoms # atomic

1 1 6.1032620775680000e+00 2.6725429114870001e+00 1.3852973278970000e+00
2 1 1.4464817911290000e+00 9.3644423625790001e+00 6.1187898138370000e+00
3 1 1.2017853715110000e+01 1.3296422261489999e+01 1.5434819133790000e+01
4 1 1.2746654744140001e+01 8.1111848126160009e+00 5.2912806877619998e+00
5 1 3.5727550470109999e+00 9.7770236217130009e+00 3.0754345334209998e+00
6 1 6.4364697111330003e+00 9.5805773061479993e+00 1.0632031249930000e+01
7 1 6.3539570575960003e+00 5.1813564013400004e-01 9.4483755863570007e+00
8 1 7.1374560892790004e+00 2.5491482358430001e-01 1.4456657096770000e+01
9 1 1.1128950053490000e+01 3.9637298420290001e+00 2.4001960848040000e+00
10 1 7.9640383178520002e+00 1.3811365593070001e+01 3.3689748713050000e-01
11 1 3.4655521567270000e+00 1.5345608607759999e+01 7.7618415898090003e+00
12 1 1.4956818335670000e+01 8.9029006374280009e+00 8.2823032232439999e+00
13 1 1.0190381820350000e+01 9.9605702682070003e+00 7.5469236519970000e+00
14 1 1.5593822484060000e+01 1.3861536730150000e+01 1.6117563019440000e+00
15 1 8.9504420252910002e+00 1.5053383773540000e+01 6.2726587915209997e+00
16 1 1.0227435812900000e+01 3.6479491495860001e+00 1.3336326198920000e+01
17 1 1.2715470309850000e+01 1.2614314974159999e+01 8.7703286631190007e+00
18 1 1.7377959042260001e+00 1.2782475280650001e+01 1.4818460489080000e+01
19 1 2.4975092899740001e-01 5.0171967535339999e+00 7.8846315747700002e+00
20 1 1.3730573491980000e+01 6.8333936511589997e+00 1.6015761404629998e+01
21 1 1.2632745784350000e+01 1.0295188471330000e+01 1.4232760844020000e+00
22 1 1.3040041327270000e+01 5.8685900815220000e+00 1.1208882971590000e+01
23 1 3.2599227680810001e+00 9.0525511195570001e+00 1.3399472958880001e+01
24 1 8.9576128228910008e+00 1.0603280796030001e+01 1.5396965872770000e+01
25 1 1.1605358698200000e+01 8.0945518241879999e-01 1.5515127755320000e+01
26 1 1.5821288578360001e+01 9.6040882147700000e+00 1.2243482001329999e+01
27 1 3.4589912110170000e+00 3.2934810054930002e+00 8.8132051597970005e+00
28 1 2.6986070473699999e+00 5.5071620057780004e+00 1.5999793055330001e+01
29 1 1.3080276952149999e+01 2.1520410321010002e+00 1.0570274298450000e+01
30 1 3.0496320344429999e+00 7.4905020470909998e+00 1.0095434063150000e+01
31 1 2.8875386750100001e+00 1.5299126467240001e+00 6.0355057390900002e-01
32 1 1.6067442928599998e+01 6.7652692862350001e+00 3.0299243429180001e+00
33 1 7.9558420870089996e+00 1.3952358926170000e+01 1.1574769051390000e+01
34 1 1.1110704056250000e+01 8.2841654161970002e+00 1.3344476446820000e+01
35 1 1.0818170118610000e+01 2.4991324511720001e+00 6.2742770350799999e+00
36 1 3.3757297467330001e+00 1.3162062985990000e+01 4.9342451860290000e+00
37 1 1.5353322072350000e+01 1.2690475502480000e+01 5.2536571288990004e+00
38 1 8.1996705511760002e+00 6.6775589679719998e+00 5.2415703492910004e-01
39 1 9.9290188117829992e+00 7.4543933846080002e-01 1.0457306384140001e+01
40 1 6.9960839907079997e-01 1.3429327883870000e+01 8.7030354995250008e+00
41 1 3.2390695279170001e-01 9.8167331147470005e+00 6.7250919414809995e-01
42 1 3.7543298059820001e+00 1.2926594998750000e+01 1.1040669540720000e+01
43 1 7.3115883222560001e+00 3.8751327873029999e+00 5.5542484293019996e+00
44 1 7.3609726014200005e-01 5.5071849996040001e+00 1.2546795293620001e+01
45 1 6.2373349527889999e-01 1.8702225423109999e+00 6.0262314668640000e+00
46 1 1.0738455206330000e+01 9.7776431326839996e-02 2.9306263827960000e+00
47 1 1.4727844666139999e+01 3.0993430584869999e+00 1.4755090415240000e+01
48 1 1.2139736848429999e+01 1.3119097538989999e+01 4.7713892194919998e+00
49 1 3.7261875936590001e+00 1.3990664811820000e+01 1.4536959291760001e+00
50 1 8.5291841492249993e+00 7.2063887520340000e+00 4.8356938867009998e+00
51 1 1.3479791480999999e+01 4.1142347542750002e-01 7.6867720732129996e+00
52 1 5.2231111405209996e+00 9.3854836636750005e-01 5.1635498139690004e+00
53 1 3.7003330297139998e+00 5.2135275085139998e+00 3.7365299943440000e+00
54 1 1.3743630878650000e+01 4.4193464570009997e+00 4.9614231504520001e+00
55 1 3.6913870528260002e+00 1.6040200602719999e+01 1.3437374754960000e+01
56 1 5.3376742764509997e+00 1.1708741979659999e+01 1.5711543520339999e+01
57 1 6.0107088194970002e+00 4.5561293033209997e+00 1.2560373598989999e+01
58 1 1.3867499635770001e+01 1.4907651930020000e+01 1.2627548434700000e+01
59 1 9.5686454200500002e+00 6.4919318838460001e+00 9.3903763406589995e+00
60 1 5.4832045038770003e+00 8.3128065641360003e+00 6.5078494703559997e+00
61 1 7.2619845246169996e+00 1.1356922453730000e+01 4.5021558771179997e+00
62 1 6.4679064290300003e-01 1.4398470488049999e+00 1.1211507475019999e+01
63 1 6.5380292823230004e+00 4.6861976211689997e+00 9.2400999947199995e+00
64 1 1.5313101902280000e+01 1.3347112904950000e+00 2.3945318288030002e+00
65 2 6.3720628936069996e+00 3.6131551543080000e+00 7.2656753404719998e-01
66 2 6.0122136000059996e+00 1.7652416215080000e+00 2.1052864869639998e+00
67 2 1.2164727405700000e+00 1.0417519023240001e+01 5.7185356012549997e+00
68 2 1.7602654399780000e+00 8.3035406743380005e+00 6.4992755647719997e+00
69 2 1.2533503686370000e+01 1.2764874003779999e+01 1.4463499582890000e+01
70 2 1.1561714468220000e+01 1.3828069784840000e+01 2.0277500883270000e-01
71 2 1.3497891663410000e+01 8.9023141021990000e+00 5.6909785083770004e+00
72 2 1.1992098831210001e+01 7.3166803440189998e+00 4.8601466347960001e+00
73 2 2.4456285092640000e+00 9.7044625179880004e+00 2.7200440504760000e+00
74 2 4.6468954556849997e+00 9.8812738532729991e+00 3.5128483526349998e+00
75 2 6.2865021323640002e+00 8.6653706192869997e+00 9.9155462938479992e+00
76 2 6.6348361622179999e+00 1.0553443847970000e+01 1.1336415476910000e+01
77 2 7.0119467956520003e+00 6.4786615827219995e-01 8.4901656745890008e+00
78 2 5.8591275707859998e+00 3.1605441885449997e-01 1.0490311753500000e+01
79 2 6.8168667279040003e+00 2.7616664646819999e-01 1.5584807249070000e+01
80 2 7.3121983406659998e+00 1.8975182670019999e-01 1.3318162653390001e+01
81 2 1.0699063301540001e+01 4.9113899976319999e+00 2.9362757360059999e+00
82 2 1.1519764705769999e+01 3.0578636512730002e+00 1.7581894993189999e+00
83 2 8.5787204064370002e+00 1.4054164655270000e+01 1.5559656315550001e+01
84 2 7.3149835224260000e+00 1.3494941705180000e+01 1.2215813793750001e+00
85 2 4.1881673186840001e+00 1.4843832665370000e+01 6.9201720502889996e+00
86 2 2.7978204770369999e+00 1.5896857409310000e+01 8.5016298402330008e+00
87 2 1.4218945531090000e+01 7.9740852460080003e+00 8.3950067225890006e+00
88 2 1.5661159093800000e+01 9.8092867369790007e+00 8.2002276964709999e+00
89 2 9.2220050011550008e+00 9.6552027553169992e+00 8.2039667912029994e+00
90 2 1.1083877733100000e+01 1.0305353690010000e+01 6.8310393332309998e+00
91 2 1.4732686169660001e+01 1.3119910886240000e+01 1.1964936393600001e+00
92 2 2.7504850648870000e-01 1.4535566461389999e+01 2.0054897339409998e+00
93 2 9.5094883332050006e+00 1.6021286452460000e+01 5.8844950068679998e+00
94 2 8.3744929347300001e+00 1.4108939944350000e+01 6.5772847576480000e+00
95 2 1.0004187142519999e+01 4.1715111855449996e+00 1.2316883300680001e+01
96 2 1.0318837087510000e+01 3.0642655699770001e+00 1.4345670822590000e+01
97 2 1.2722485329780000e+01 1.3674435125770000e+01 8.2740540962200004e+00
98 2 1.2666227455060000e+01 1.1663652245710001e+01 9.4149103980090008e+00
99 2 1.0902122599080000e+00 1.3774741213690000e+01 1.4936105002340000e+01
100 2 2.2950222293899998e+00 1.1747857418180001e+01 1.4809500897010000e+01
101 2 7.7636381369020002e-01 4.7824288624860003e+00 6.8249372449230004e+00
102 2 1.5897907868070000e+01 5.2251161160389996e+00 8.9030728194089992e+00
103 2 1.3359438005670000e+01 7.5902019217770000e+00 1.5205003418430000e+01
104 2 1.4127263825069999e+01 6.0796113075809997e+00 6.0230613560720003e-01
105 2 1.2384472219119999e+01 1.0746463395270000e+01 3.7128134152050002e-01
106 2 1.2839461633030000e+01 9.7921718019929997e+00 2.4601674343569999e+00
107 2 1.3276437663390000e+01 6.3875918991400003e+00 1.2212106083369999e+01
108 2 1.2811080263570000e+01 5.2996924536509997e+00 1.0225691673340000e+01
109 2 3.0176723352210000e+00 8.0926076717090005e+00 1.4053896336079999e+01
110 2 3.6117330912250001e+00 9.9580018641369996e+00 1.2782455033120000e+01
111 2 9.1834776689180000e+00 1.0505036452210000e+01 3.4511856044360001e-01
112 2 8.7187336147379995e+00 1.0912692352740001e+01 1.4256012307550000e+01
113 2 1.0549774186320001e+01 4.6026254416119999e-01 1.5282480024840000e+01
114 2 1.2695270044420001e+01 1.2274065907450000e+00 1.5675438249959999e+01
115 2 1.5444189981530000e+01 9.1399888422760007e+00 1.1249437325800001e+01
116 2 1.1556785869500000e-01 1.0152797496450001e+01 1.3178649535580000e+01
117 2 2.5271307185629999e+00 3.9324609021139998e+00 9.0657971106539996e+00
118 2 4.3996548677070004e+00 2.6561133901149998e+00 8.5887463677039992e+00
119 2 1.9216385111700001e+00 5.0358661889859997e+00 1.5254335997369999e+01
120 2 3.5187962733689999e+00 6.0341095871309998e+00 4.8714532228270002e-01
121 2 1.3658296362650001e+01 1.9951430519450000e+00 1.1579935708350000e+01
122 2 1.2608989809600001e+01 2.4145120220330001e+00 9.5158989015800000e+00
123 2 3.5227376418900000e+00 6.4921205979329999e+00 9.8457747861880005e+00
124 2 2.4435767225489999e+00 8.4409007706259995e+00 1.0397523073460000e+01
125 2 2.8324872046539999e+00 1.7885007864589999e+00 1.5658338473360001e+01
126 2 3.1782351294900000e+00 1.3357224704349999e+00 1.6999781102210001e+00
127 2 1.5119682642300001e+01 7.2258343628109998e+00 3.4950184120740002e+00
128 2 8.3033466174560000e-01 6.2891905696970003e+00 2.5759581252740000e+00
129 2 9.0840439463229998e+00 1.4051752692999999e+01 1.1796257405330000e+01
130 2 6.8038245173460004e+00 1.3804288691669999e+01 1.1307821642930000e+01
131 2 1.1981743069069999e+01 8.8197808652190002e+00 1.2794062911179999e+01
132 2 1.0245758571520000e+01 7.7196876376860004e+00 1.3846008845180000e+01
133 2 1.0581902820210001e+01 2.5773662508810000e+00 7.4110719592359997e+00
134 2 1.0937293565039999e+01 2.6278109355710000e+00 5.0998554325869998e+00
135 2 4.1144241480110004e+00 1.2404952919670000e+01 5.4837628218400001e+00
136 2 2.5812943843600000e+00 1.3794771301060001e+01 4.3315452188170003e+00
137 2 1.4851207503139999e+01 1.2984391832529999e+01 6.2875616072389997e+00
138 2 1.5876266366599999e+01 1.2352896906070001e+01 4.2520762810279997e+00
139 2 8.7841322903190004e+00 5.6703277378830004e+00 3.6733265463830000e-01
140 2 7.5565132901079997e+00 7.6509632338919999e+00 4.8400904331610001e-01
141 2 9.9232895678110005e+00 1.2053454749920001e+00 1.1524839085600000e+01
142 2 1.0026331361640000e+01 2.1363159770310000e-01 9.4350826983469993e+00
143 2 1.4200021030550001e+00 1.3526493059790001e+01 7.7474319757970003e+00
144 2 1.4372028181620000e-01 1.3341299752239999e+01 9.7396059411540001e+00
145 2 3.2556216166039997e-01 8.6446181075989994e+00 6.8399499335979996e-01
146 2 1.9957217522939999e-01 1.0991160344720001e+01 4.8713381508560000e-01
147 2 3.4809534664530002e+00 1.2817991255280001e+01 9.9340356395130005e+00
148 2 3.9578247668929998e+00 1.2965490933940000e+01 1.2180328665690000e+01
149 2 7.3123817380759997e+00 4.0743327984809996e+00 6.7047465270090001e+00
150 2 7.2076366885540004e+00 3.7704606444489999e+00 4.4003499435490001e+00
151 2 1.3644981447050000e+00 4.5563259227400001e+00 1.2332551127710000e+01
152 2 3.8036937967070000e-02 6.4376928087580003e+00 1.2653240208420000e+01
153 2 1.5720285620189999e+01 2.2059549306189998e+00 6.2012623339130002e+00
154 2 1.6884465143459999e+00 1.5614194437619999e+00 5.7504638036950002e+00
155 2 9.6446760977159993e+00 1.6156737320440001e+01 2.4623268454430001e+00
156 2 1.1792090061760000e+01 2.3496839337889999e-01 3.3723992257319999e+00
157 2 1.4289690268570000e+01 3.7416810234620002e+00 1.3884051532000001e+01
158 2 1.5277036364490000e+01 2.4960236093999999e+00 1.5598930278510000e+01
159 2 1.1439007888940001e+01 1.3570637965670000e+01 5.6043931031970002e+00
160 2 1.2857004205150000e+01 1.2572967923520000e+01 4.0299533782449997e+00
161 2 4.0588773420199997e+00 1.5090639186940001e+01 1.7167629798599999e+00
162 2 3.4613912925079999e+00 1.2864725564980001e+01 1.3044345615460000e+00
163 2 8.5500204812099998e+00 7.1058728152709998e+00 3.6649767589910001e+00
164 2 8.5713713980000001e+00 7.3218580868240002e+00 5.9950572645950002e+00
165 2 1.2964870621690000e+01 7.4455799027430003e-01 6.6977297613699998e+00
166 2 1.4068005788340001e+01 1.3666274178020001e-03 8.6161956207839996e+00
167 2 4.8602255217029997e+00 1.8878135637939999e+00 5.7254639848959998e+00
168 2 5.5692322050790004e+00 -6.4138295349630003e-02 4.6684489250469996e+00
169 2 3.5641018098030002e+00 6.2639515948440003e+00 4.1919613439179999e+00
170 2 3.9375590732350001e+00 4.1710632805280001e+00 3.3492440870280000e+00
171 2 1.3511156730450001e+01 4.5575064982760001e+00 6.0822665172620001e+00
172 2 1.3981444590110000e+01 4.3549604718920003e+00 3.8280931016520001e+00
173 2 3.4052442030179999e+00 1.5164388977230001e+01 1.4163778332490001e+01
174 2 4.0086589767529999e+00 7.5024565629800000e-01 1.2777503621299999e+01
175 2 5.3077415229140001e+00 1.2759534630399999e+01 1.5175054143880001e+01
176 2 5.5834363194650001e+00 1.0712629248550000e+01 1.1360313143900000e-01
177 2 5.1448628394000000e+00 4.4450178746709996e+00 1.1773451360979999e+01
178 2 7.0093638915980003e+00 4.6980841028980000e+00 1.3191623421270000e+01
179 2 1.4774484868949999e+01 1.4197183559599999e+01 1.2479861343250001e+01
180 2 1.3012860133520000e+01 1.5707135575900001e+01 1.2775963092700000e+01
181 2 9.5521762051289993e+00 5.6793187913740004e+00 8.5638624803439996e+00
182 2 9.7625762791449997e+00 7.3155103251200000e+00 1.0234330476409999e+01
183 2 5.6856593316249997e+00 7.6325043049970001e+00 5.5666884625820003e+00
184 2 5.2802847708050002e+00 9.0715426324399999e+00 7.4046258468790001e+00
185 2 7.6489671720140002e+00 1.0300471087220000e+01 4.8750543141330001e+00
186 2 7.0366768712549996e+00 1.2436553248379999e+01 4.1271237896640001e+00
187 2 7.7366418910000001e-01 6.4801404233860005e-01 1.2049183105699999e+01
188 2 6.1907334036429995e-01 2.2544141107560001e+00 1.0391076013479999e+01
189 2 5.7969590760570000e+00 5.4983720691720004e+00 8.9409830122489993e+00
190 2 7.2407659305310004e+00 3.8131974360130001e+00 9.6397243946430002e+00
191 2 1.4399561865090000e+01 6.5466003600279998e-01 2.2112935690460001e+00
192 2 1.6293858265410002e+01 1.9805858037120001e+00 2.5068477705890002e+00

Velocities

1 -7.2778314962010002e+00 -4.4578993936220002e+00 4.5948760270899998e+00
2 8.5426033383639999e-01 -2.4569828492640000e+00 -9.2340276960360002e-01
3 -1.1503908621340000e+00 -7.4599890370819999e+00 4.0839736193089998e-01
4 -2.7557754525329998e+00 -6.6060460557220004e+00 3.6838744536000001e+00
5 2.0061161116630002e+00 3.6797102161759998e+00 4.4699718165549998e+00
6 3.4576031706050001e+00 8.2216259100969999e+00 -3.4561877088859999e-01
7 -2.7145754934089998e+00 -3.5129867913790003e-01 -2.3841355678420002e+00
8 2.4873953810820000e+00 3.4530506522350000e+00 3.8725458921609999e+00
9 3.2626127480970002e-01 -2.6321848684350002e-01 -4.6053536477339998e+00
10 2.6650660269689999e+00 9.1389058678309998e-01 5.7972737225210000e+00
11 2.7893944292830000e+00 -6.9809379957030000e+00 -2.5780101336799999e-01
12 3.8458996105660002e+00 -1.4909159011630000e+00 -1.2546419162830000e+00
13 4.7053114572180004e+00 1.2625356736560001e+00 6.8653760335290004e+00
14 -6.9082169379599998e+00 6.8245872543679997e+00 6.2949849435170000e+00
15 5.1771302808059998e+00 -5.3757330556250005e-01 2.3663416097650001e+00
16 1.3973485339410001e+01 3.9004657722629998e+00 2.5822118839030002e+00
17 1.0857809316939999e+00 -1.6362142235410000e+00 -1.8105873073270000e+00
18 8.6935501778379998e-01 1.2410790103960000e+01 -7.9475653805900004e+00
19 2.6990116013129999e+00 4.0389182978070002e+00 8.4324402419919997e-01
20 -3.8617362405779998e+00 -1.2060703115760001e+00 2.1467399877759998e+00
21 -1.0133879528100000e+00 7.3175688791180005e-01 -6.3078771588820004e+00
22 6.6561079553590003e+00 -2.2817096351180002e+00 -9.1845640839770004e-01
23 2.3731224429769999e+00 3.5181787417160000e+00 -1.2673895816350000e+00
24 6.5411056141810002e+00 -2.9914395092410002e+00 -6.4772064320130003e+00
25 5.9616183291770000e+00 5.1043254748839999e+00 -2.1314714014649998e+00
26 4.8109871334400003e+00 -7.9598460796780000e+00 4.1337915735750004e+00
27 1.2889167486979999e-01 -8.4603374361730008e+00 6.4612116788830001e+00
28 2.2849414580740000e+00 -6.5536086767319999e+00 9.2866412781880001e+00
29 3.9297265682170002e+00 8.4635264934850003e+00 4.9296690686030002e+00
30 -7.6491723232410003e-01 -3.8031559634790000e+00 4.1840412381040002e+00
31 -2.1118648227260000e+00 5.8576711396560004e+00 -1.2481841208650000e+01
32 3.5928011448860002e+00 2.4835464634480000e+00 3.8268886786610001e+00
33 -4.9437064705070002e+00 -8.5521838191149993e+00 -1.0195225830329999e+00
34 -6.9583387245950001e-01 -9.8426449214890006e+00 -2.1695178901570000e+00
35 3.7787089158999998e+00 4.3375242554330001e-01 2.6867428239929998e+00
36 -2.2709469841040000e+00 -2.5388898945850000e+00 -7.7568981692949999e+00
37 -2.2173651450210001e+00 4.3557671456960003e+00 -4.6360996820580000e+00
38 3.6504313753059998e+00 2.5299932614720002e+00 -3.7201811846460000e+00
39 -1.4505400868070000e+00 -2.2861856458870000e+00 -2.6934541699230001e+00
40 -8.4620122230869992e+00 -7.6423204512740002e+00 -1.0100920559890001e+00
41 -7.0073796685040000e+00 -5.5332967386420000e+00 -2.6715897913090001e+00
42 -4.6315651584599999e+00 -1.4115247471120000e+01 2.5514027737920002e+00
43 1.8940896707160000e+00 9.2792039679249996e+00 1.9577655026590000e+00
44 -2.1859762332410000e+00 -4.3220864185740000e+00 2.6985793038360000e+00
45 6.0418309583370000e-01 5.7750626529100000e+00 8.6676715165830007e+00
46 -3.2254175609389999e+00 6.4761584623159996e+00 -2.8909097452600001e+00
47 4.8584777330039998e-02 5.1366135267080004e+00 1.9658505626270000e+00
48 2.6536748186770001e+00 1.4216933721830001e+00 2.6128685113320000e+00
49 -1.7813167909309999e+00 -6.9704345868359996e-01 9.7634590233149998e-01
50 1.0812947756510001e+00 -9.2406867975929998e+00 -7.9609853009310001e+00
51 2.7817008975739999e+00 -1.0495878251949999e+00 3.2463677278179998e-01
52 -4.7458479872610004e+00 2.0802015510229999e+00 1.8322987849090000e+00
53 -1.0034598812630000e+01 -4.5730492142559998e+00 2.6931492196489999e+00
54 -6.8930873786500002e-01 -1.9757548104480001e+00 -4.4882750849469999e-01
55 1.1042676179810000e+01 1.0152281708480000e+00 9.1453776255729995e+00
56 4.5645059917810000e+00 2.5923403321560001e-01 -4.6386989962679998e-01
57 -7.0350528931080003e+00 1.6502386236000000e+00 6.2770328252329999e-01
58 1.3065950078249999e+00 -8.0841782095299997e-01 -6.0463401102320002e-01
59 7.0094574261189999e+00 -8.0739850507170008e+00 4.2355286813010001e-01
60 -9.2668927979180005e-01 -1.5762720695279999e+00 -4.6105048254090004e+00
61 -6.9216914732849997e+00 -1.6711169711170000e+00 -1.8426273771680000e+00
62 7.8619406331370003e+00 -1.2540454905950000e+00 1.3477439479740001e+00
63 3.8171049629559999e+00 1.9239621599920001e-01 2.8054609066120002e+00
64 1.4352029116270000e+00 4.8749453796770004e+00 -1.3150729190160000e+00
65 1.1896572106779999e+00 2.1826934009490002e+00 -7.6471424893500002e+00
66 -2.9335254441540002e+00 4.1250286224110004e+00 6.2533799887690000e-01
67 -2.5186272718180001e+00 -2.3335083738460000e-01 -3.0934006750459999e+00
68 -3.6265875276149999e+00 7.0690297455499995e-01 -1.0336218010789999e+00
69 7.7729698226829997e+00 -6.1733103116620001e+00 4.4430352705170000e+00
70 7.4077975474829998e+00 -4.5367620834449998e+00 2.9961256203039999e+00
71 1.3154430547360001e+00 3.3431566848559999e+00 5.6258559752990003e+00
72 -3.0691961850410001e+00 3.9817274448659998e+00 6.3968527647800000e-01
73 -2.1282041422570002e+00 -1.7719669043049999e+00 -3.5134687357360000e-01
74 -1.3736452621240001e+00 3.4450629695790003e-01 5.8802913571950004e+00
75 -6.2157010729930002e+00 -2.6094636549899999e+00 1.7203449000790001e+00
76 -2.2257939747130000e+00 9.0058878997970009e+00 6.8561875991129995e-01
77 -1.5582407389020001e+00 -2.0115842192639999e+00 -4.6565452515040002e+00
78 -1.4569592531930000e+00 2.5751967796869999e+00 1.2301683495760001e+00
79 -6.6998565795870002e-01 2.6367027283979998e+00 1.0609012313290000e+00
80 -2.5327388345020002e-01 -1.8407974291810001e+00 -1.4728564906780000e+00
81 -1.4921277094420000e+00 -1.5987095011660000e+00 -7.2042459999580000e-01
82 2.6188404069739999e+00 7.9664705546040002e+00 -5.5765413045659997e+00
83 -4.8602219495650001e+00 -5.7780825988649998e-01 -3.2394030454650000e+00
84 -8.7692762824470005e-01 -1.5854037843760000e+00 -4.1389390799220001e-02
85 2.5984375382170000e+00 1.4282601232159999e+00 -4.6437898868540000e+00
86 5.6599722999080004e+00 -5.6866173285669996e-01 -4.0439587265570003e+00
87 -8.8053012145919995e-01 5.0756999111490000e+00 3.9652718358820001e+00
88 -8.2138261202429994e-02 6.1190756849420003e-01 4.6808303230339998e+00
89 1.5882559648329999e+00 8.4196936479350004e-01 -4.7256076568280001e+00
90 6.0773799731370003e-02 -2.9809908609089999e+00 5.6663187458279998e+00
91 -9.3686599751110000e-01 6.8152807870660004e-01 -5.0620329260329999e+00
92 9.7597912863820002e-01 -7.5632623585119996e-01 -1.4344188742239999e-01
93 -3.4538659644770000e+00 2.5584986521019998e-01 -1.2005560075220001e+00
94 1.9543750509440001e+00 -7.1657394062080004e-01 -6.6590517203850004e+00
95 2.9708827953590000e-01 -1.3780753679909999e-01 1.2835013064440000e+00
96 9.2960287363770000e-01 1.0270058238010000e+00 1.3360675965910001e+00
97 -4.8253400370220001e-01 -1.7711320454680000e+00 1.1221830686520000e+00
98 2.1632298255919999e+00 3.0292631117590001e+00 3.5008074437370000e+00
99 4.0983959145690001e+00 -4.9987810951100000e+00 -2.6838967856389999e+00
100 -1.2646066298709999e-01 6.1178234750909999e-01 -2.1875670538990000e+00
101 -3.1391250954380001e-01 1.6723146646180000e-02 2.5618538582569998e+00
102 -2.1600500525089998e+00 4.4616974167160004e+00 5.9404447822539996e+00
103 1.2095570725380000e+01 -1.9451457903420000e+00 1.2866778996399999e+00
104 -2.0060593838890002e+00 -1.7873061673549999e+00 -2.0082912341729999e+00
105 -2.9128078197859999e+00 8.7342035433790000e-01 3.2255519177809999e+00
106 9.3502220216800005e+00 -9.9464546312389999e+00 3.8945061840660000e-01
107 6.5521483284519997e+00 -5.4285330119069997e+00 -4.8829054121319997e+00
108 -1.7028035089939999e+00 3.9372626143540002e+00 -5.0553716856479998e+00
109 1.8637454383540000e+00 -4.9732505270449998e+00 7.8149428432710000e-01
110 -2.1125843120860002e+00 -2.6047313552490001e+00 -3.3921158029370000e+00
111 -6.5776577367700000e+00 -1.1285322411970000e+00 6.8011214090780003e-01
112 -6.1066731032410004e+00 2.1262049540889998e+00 -1.3456353677040001e+00
113 -9.8128382929299995e+00 -2.4451374523460001e+00 -5.1277057445679999e+00
114 -2.3670582482780000e+00 8.4821232549689995e-01 -2.7267425639280001e+00
115 1.6127973572390000e-01 -5.7175942227740002e+00 5.0086971686329995e-01
116 -2.6440883119850001e+00 -1.4270531767290000e+00 -5.0292676812649995e-01
117 -9.8422873997089999e-01 3.1894441284180002e+00 -4.4617526080790002e+00
118 -1.1126652457090001e+00 4.4084149638629997e+00 -4.6674960621980004e+00
119 -2.5719295573440002e+00 1.0441056377860001e+00 -6.8995085521449999e+00
120 -2.7460394064040002e-02 -4.4913904937679998e+00 -2.3608346331300001e+00
121 -8.1199446958069998e+00 -1.2063349741139999e+00 -2.5416514219590001e+00
122 1.1860844363380001e+00 -1.2506051119579999e+00 1.9925124979190001e+00
123 3.8784108602890002e+00 5.7126554922589996e+00 2.7378224843390000e+00
124 3.2396843527629998e-01 5.1613962381459997e+00 1.0641831214140000e+01
125 -3.9953249171610001e+00 1.2961817453669999e+00 -4.3754130304250003e+00
126 1.8843835432010001e+00 -7.5292584310070003e+00 -5.8878445929559997e-01
127 1.9370124446470001e+00 -1.7601216918980001e+00 -1.5031601923610000e-01
128 1.0206097899350000e+00 4.3035699293310001e+00 6.5761894680250004e+00
129 -2.5475707399320000e+00 -1.6845316189540001e+00 -2.2788360078940002e+00
130 -2.6487971960540002e+00 5.1084410601109997e+00 -4.6335002300249997e+00
131 -1.0953281427400000e-02 -5.8759623679270001e-01 5.4591159989909999e+00
132 -2.8734697774929998e+00 -2.3167919740939999e-01 3.0411727703390001e+00
133 -6.5303135964769998e-01 7.0446945212580001e+00 -5.1870560813129996e-01
134 4.1612844640390003e+00 7.3066517825780002e+00 3.1572804165499999e+00
135 6.3721214861420004e+00 3.6036232343100001e+00 3.6351214175250002e+00
136 8.4057089141469998e-01 -7.1385891338459997e+00 -6.1651030090070003e-01
137 -6.9678684316990003e-01 3.2941634381829998e+00 4.1984379627640003e+00
138 -3.5393725568229999e+00 2.8123692609540001e+00 -1.6537450649109999e+00
139 -1.0221989902210001e-01 -1.6307530630830001e+00 -1.4007023957930000e+00
140 2.7098910299210002e+00 1.0138376837809999e+00 1.7434496318189999e-01
141 1.1331889403580000e+00 -2.9622297840010001e-02 3.5369440186330001e+00
142 5.0387889165680004e+00 -2.7534811298070001e+00 7.1740411337359999e+00
143 5.3181920781069998e+00 4.2115884960149996e+00 -2.9012227822010002e+00
144 -4.1867741330059998e+00 -3.8633679813409998e+00 1.2234250984630000e+00
145 -2.9404691476089999e+00 2.9184919250979999e+00 7.0122525974990002e-01
146 2.2658874759440001e-01 1.9290627491290000e+00 -7.6408718471110004e-01
147 -1.3394850163000001e+00 8.7657922324699999e-01 -7.8162911842399998e+00
148 2.2591561947819998e+00 -2.5815803951100000e+00 1.0501571074370000e+00
149 -8.1903379300809998e-01 -6.9310139962659996e+00 -1.7864174375680000e+00
150 -1.8066147302769999e+00 -3.3105572553070002e+00 1.7807284319809999e-01
151 1.0923301716070000e+00 9.2423956867260004e-01 -1.6467421295280000e+00
152 -5.9165355919489997e+00 -2.6288461731810000e+00 5.0546040735610003e+00
153 6.8281879960499996e+00 2.4210794102910000e+00 -3.1629194914570000e+00
154 -1.1008141613689999e+00 -3.7823178698110000e+00 2.3907420981069998e+00
155 -1.4621149709390000e+00 3.2711397890570000e+00 2.1170653907000001e+00
156 -5.1118251619640001e+00 5.2016904711769996e-01 1.2894881644359999e+00
157 -3.6519573096909999e+00 7.4622968010419999e-01 4.7712924504850002e-01
158 1.5717335587920001e+00 4.1180279112899996e+00 2.0286513765650001e+00
159 1.2784114672189999e+00 -5.2926448348870003e-01 2.7026004680239999e+00
160 7.3424514005969999e-01 3.0984983845470002e+00 -2.0331077435420002e+00
161 -2.6739372158179999e+00 7.7022907485580006e-01 9.2782064304349998e-01
162 2.2418601376730001e+00 -5.4491783824339999e+00 -3.0350679819540001e+00
163 -4.4296972109609998e+00 1.1043396417720000e-01 3.6205180353840000e-01
164 -9.6040325649240005e-02 -5.8580687899540003e+00 -3.5328147091840001e+00
165 -3.7966050281810002e+00 7.2209851793270001e+00 5.8423389956819998e+00
166 7.3602241428199999e-01 1.7529755041190000e+00 -7.2913380992810000e+00
167 2.0510426433540001e+00 -3.1711581150270001e+00 -6.8405586504259999e+00
168 1.7388818025799999e+00 -9.9002964387019998e-01 3.8156325227740000e+00
169 -1.1734250559690000e+00 -4.4766863498019998e+00 1.8011423448940000e+00
170 2.6997354377399998e+00 2.3131177294129999e+00 2.7934281692430001e+00
171 -1.1482800440520000e+00 -2.0832128211819998e+00 7.3595628584980002e+00
172 -6.3813792178730004e+00 -3.2942282328750001e+00 -9.2135660228689993e+00
173 2.9868927950340001e+00 -3.2874777014009999e+00 -2.7255408841669998e-01
174 -4.8557977795059998e-01 5.6526061079010004e-01 -4.5130003653079998e+00
175 1.9051424192079999e-01 4.5126767340549998e+00 3.3630734670000001e-01
176 -5.9552196498600001e+00 1.0666708957890000e+01 1.8799464279489999e+00
177 -5.1129594810460000e-01 -3.1004911920620000e+00 3.7610903445770001e+00
178 -3.9379642358849998e-01 1.1250330756480000e+01 -7.9282819405960003e+00
179 7.1093641478820002e+00 7.6781953523939999e+00 8.7389043795069998e-01
180 -1.6340828006840000e+00 -5.9380505566080002e+00 -2.6993673171190000e+00
181 -8.3292112777259995e+00 2.9511973285199999e-01 -1.7073053202080000e+00
182 -5.4065851960259996e+00 -6.6879229535759999e+00 1.9999717425779999e+00
183 1.7694334559500000e+00 2.7631608976769999e+00 -2.4183383272870000e+00
184 3.1562281442479998e+00 5.8092628953320000e+00 -5.2882295694680002e+00
185 -1.6792672376419999e+00 -2.5242412128980001e+00 1.3271844375559999e-02
186 -1.8967473499350000e+00 -1.9351922855829999e+00 1.3014388785960000e+00
187 3.8473103697709998e+00 3.3803024116170000e+00 4.4173380697460001e+00
188 3.5525460254289998e-01 6.6051003471449998e-01 -5.2685085438480002e+00
189 -7.8313845686049999e-01 7.5724677492060000e-01 2.8772097424820000e+00
190 -4.3625960942540001e+00 -3.4587650811500001e+00 1.5054527716020000e-01
191 2.1752125859870000e+00 7.0805368052850004e-01 8.0940378585109996e-01
192 8.5618270398010008e+00 3.8324034133430002e-01 7.9497555256219998e+00
