LAMMPS data file extracted from NVT dump, timestep 420000, units metal

192 atoms
2 atom types

0.0000000000000000e+00 1.6195563468200000e+01 xlo xhi
0.0000000000000000e+00 1.6195563468200000e+01 ylo yhi
0.0000000000000000e+00 1.6195563468200000e+01 zlo zhi

Masses

1 12.00000000
2 16.00000000

Atoms # atomic

1 1 1.5733981360840000e+01 1.0176392523980001e+01 4.0178371259889998e+00
2 1 6.3258986087700002e+00 1.3302821794820000e+01 5.6981981445179999e+00
3 1 3.6328217645060001e+00 6.3399295217380001e+00 7.3545910001159998e+00
4 1 4.4824482363989997e+00 1.5598461581780001e+01 2.4654963510200001e+00
5 1 4.6157701987640003e+00 1.1538359521760000e+01 9.9520147343669993e+00
6 1 1.3643566666270001e+01 1.0282491456400001e+01 1.4426130217240001e+01
7 1 5.1442172386780003e+00 1.4913073584310000e+01 1.4124736972130000e+01
8 1 1.1631348733579999e+01 1.4471947031920001e+00 7.1213673890880003e+00
9 1 1.0212156949880001e+01 1.0738274967030000e+01 5.7198963331709995e-01
10 1 6.2048375586660001e+00 1.1578592217900001e+01 1.0174942417799999e+00
11 1 1.5322046726749999e+01 2.8267245201300000e+00 1.2766447264220000e+01
12 1 5.5615323262410001e+00 3.0757518078360002e+00 -1.6499460785220001e-02
13 1 1.0941955811099999e+00 7.1173598122820003e+00 1.6052177912489999e+01
14 1 8.2378376235229993e+00 7.1214744801299998e+00 3.6777045024790000e+00
15 1 8.1286146255140004e+00 9.3177339407649995e-01 4.9529353217730003e+00
16 1 2.5837876922960001e+00 6.5319794480239999e+00 1.2208059281070000e+01
17 1 1.1714072944050001e+01 1.4558058931400000e+01 6.3276385335949996e+00
18 1 1.1250658608080000e+01 6.1177505107680004e+00 7.5951045506270001e+00
19 1 4.6851466482210000e+00 1.4046336457450001e-01 9.9204890173490003e+00
20 1 5.3920679968230001e+00 8.9624093745870006e+00 1.3713990511680000e+01
21 1 1.1241049046640001e+01 3.9212432289789998e+00 2.8439660184959998e+00
22 1 1.3446978799300000e+01 7.4259401772259999e+00 1.4227760577949999e+00
23 1 1.0692440487660001e+01 1.5677250551529999e+01 1.9181813350220001e+00
24 1 1.3845807769990000e+01 1.0952219053770000e-01 9.9201940969819997e+00
25 1 6.1999899277460004e+00 5.0990231724069996e+00 1.0359891412960000e+01
26 1 8.0444954124569996e+00 1.2782725866980000e+00 1.2882412519090000e+01
27 1 1.1507460130829999e+01 3.4247013355429998e+00 1.1118555103000000e+01
28 1 9.7959465682619999e+00 1.1108921422790001e+01 7.5071074926780001e+00
29 1 1.1360193884730001e+00 3.8171675440090000e+00 5.9556270895169998e+00
30 1 3.8091191935570001e+00 2.8761912541050001e+00 1.2529620416829999e+01
31 1 1.0852945973800001e+01 1.3382953679750001e+01 1.2903691651600001e+01
32 1 1.4879536902070001e+01 4.3799377986519996e+00 8.6206844804239999e+00
33 1 4.5122164156369999e+00 5.0363871876489998e+00 3.4359718766889999e+00
34 1 8.1712758831779997e+00 1.1326343100320001e+01 1.2778823833260001e+01
35 1 5.9189647733869997e+00 3.2849601107790001e+00 6.8588620210229996e+00
36 1 1.0649587707189999e+01 3.9580591652899999e+00 1.4917233919459999e+01
37 1 1.6451196581870000e+00 3.1555692577930001e+00 9.7685236128480000e+00
38 1 1.4223842971430001e+01 6.2573150662170001e+00 1.4139208176850000e+01
39 1 9.3227776218879992e+00 1.1493054470750000e+01 3.6325829800229998e+00
40 1 1.0760607762610000e+01 8.9048207588809998e+00 1.1896164247110001e+01
41 1 1.2610423053760000e+01 9.0835863182810002e+00 6.0635958045239997e+00
42 1 3.3672552983030002e+00 8.4047584525320005e+00 2.4186553108190001e+00
43 1 8.5668384071129999e+00 2.8601157000419999e+00 9.1800363932060005e+00
44 1 2.3100932846419999e+00 1.2001889763470000e+01 4.1417806854219998e+00
45 1 1.4711209432650000e+01 7.6358100861149998e+00 1.0974759488889999e+01
46 1 5.2245444818819999e+00 8.7334245112800009e+00 5.4154293956209996e+00
47 1 8.4015874679210008e+00 7.6907156949389996e+00 1.4607600361490000e+01
48 1 1.1927667091690000e+00 1.1280841799079999e+01 1.2160511590110000e+01
49 1 1.5774413746500000e+01 1.4474646765919999e+01 8.4853330113970005e-01
50 1 8.0573950444260003e+00 1.5507396985190001e+01 1.6164335139359999e+01
51 1 2.6198025109319998e+00 1.1936140494489999e+01 1.5851078694170001e+01
52 1 2.4392225545880000e+00 2.0186486673160000e+00 2.9618988527279999e+00
53 1 1.3672851864280000e+01 1.1702538046790000e+01 9.7472011011189998e+00
54 1 1.5489383948740000e+01 6.8741422312590004e+00 5.5409176441970001e+00
55 1 1.5208913346559999e+01 8.3715558591350003e-01 4.6513070299499999e+00
56 1 1.2268635414739999e+00 1.0564399124950000e+01 8.6843701640919999e+00
57 1 1.5402197086130000e+01 2.6088298752729999e+00 9.9218211463660000e-02
58 1 8.3875191175240005e+00 1.4562763771900000e+01 9.1240854043430009e+00
59 1 2.8040865389770002e+00 1.5838025196880000e+01 6.1585201971629999e+00
60 1 1.3395498788119999e+01 1.3267257692179999e+01 2.5390940517649998e+00
61 1 9.3158305451659995e-01 1.5898926846169999e+01 1.3593500065980001e+01
62 1 8.4021931809649997e-01 1.4696550713810000e+01 9.3813080906500002e+00
63 1 7.9271563253009996e+00 9.0161143254620004e+00 9.2305306652050003e+00
64 1 1.2814389638650001e+01 1.4711844397760000e+01 1.4829832392629999e+01
65 2 1.5444819053170001e+01 9.6424771983230002e+00 4.9945820308839997e+00
66 2 1.6182845912800001e+01 1.0652690226130000e+01 3.0579564000669999e+00
67 2 6.2181551917880000e+00 1.3745051926109999e+01 4.6186812003000002e+00
68 2 6.4767156352699997e+00 1.2960535670260001e+01 6.8343584699409998e+00
69 2 3.8700073428840001e+00 6.8830160663079996e+00 8.3821446248879994e+00
70 2 3.3898414455450001e+00 5.7842372753099998e+00 6.3108293640940003e+00
71 2 5.3309750191059999e+00 1.2725303830970000e-01 2.8367624475600000e+00
72 2 3.5978853535990001e+00 1.4892150614220000e+01 2.1404584884619999e+00
73 2 4.9699629688400000e+00 1.2456976765280000e+01 9.3378559466629998e+00
74 2 4.3048417593919996e+00 1.0555029041630000e+01 1.0524594819840001e+01
75 2 1.3868857299220000e+01 1.0059543570640001e+01 1.3285482340970001e+01
76 2 1.3331809348469999e+01 1.0523098023170000e+01 1.5521627372279999e+01
77 2 5.6249903126040000e+00 1.5985692667129999e+01 1.4306299589030001e+01
78 2 4.6286928658109998e+00 1.3903175478080000e+01 1.3872254074200001e+01
79 2 1.0528630867930000e+01 1.8136157276750000e+00 6.8967695168700001e+00
80 2 1.2714984747430000e+01 1.0451041753500001e+00 7.2139856387460002e+00
81 2 1.0387167418950000e+01 9.6060736847909993e+00 3.1988781128470001e-01
82 2 1.0016555095119999e+01 1.1854260354730000e+01 8.6290309404319998e-01
83 2 6.4309296677859997e+00 1.2538426191170000e+01 3.5135337118799997e-01
84 2 5.8377208920359998e+00 1.0619388223630001e+01 1.5282587450500000e+00
85 2 1.4236551073990000e+01 3.0439202116540001e+00 1.2409762839740001e+01
86 2 1.9373666679380000e-01 2.6044290601940001e+00 1.3134492267700001e+01
87 2 6.2223519753850001e+00 3.5775066531030002e+00 8.1784687465210004e-01
88 2 4.8907540069479998e+00 2.6374790325339998e+00 1.5339514956570000e+01
89 2 6.7094693075779999e-01 7.9479949998870003e+00 1.5336987664520001e+01
90 2 1.4758866531360000e+00 6.3165567520639998e+00 5.8408374776000005e-01
91 2 9.1810954647339997e+00 7.0092120742309998e+00 4.3824665690659996e+00
92 2 7.3459217633920000e+00 7.4571069004210004e+00 2.9891171857579999e+00
93 2 9.2361105666740002e+00 9.8702579586719996e-01 4.5195852767550004e+00
94 2 7.0627341589219998e+00 7.3158616486869998e-01 5.4122855755700003e+00
95 2 3.1996764745460000e+00 6.8243629553620000e+00 1.1225199212160000e+01
96 2 2.0602277423170001e+00 6.2614965302870003e+00 1.3248476829050000e+01
97 2 1.2026357037049999e+01 1.4958573109540000e+01 5.2595530953649998e+00
98 2 1.1530419335170000e+01 1.4136457257100000e+01 7.3795622790059996e+00
99 2 1.1317083650710000e+01 5.3848451896369998e+00 6.7138946808790001e+00
100 2 1.1244499822660000e+01 6.7257229484370002e+00 8.6079502710010001e+00
101 2 4.2940569034339999e+00 9.0898698913779996e-01 9.1422030760740007e+00
102 2 5.1217725461710000e+00 1.5551199976090000e+01 1.0654590027619999e+01
103 2 5.4077826770500002e+00 1.0142302062240001e+01 1.3818265593540000e+01
104 2 5.2136519669540000e+00 7.8090413425390004e+00 1.3644018988079999e+01
105 2 1.0229764725110000e+01 3.3978238641730001e+00 2.5523239506730002e+00
106 2 1.2255195715350000e+01 4.5018770634149998e+00 2.9682371133790002e+00
107 2 1.2455404848390000e+01 7.9875477599569997e+00 1.6610127919450000e+00
108 2 1.4395950921960001e+01 6.9501688551959999e+00 9.6399169847550004e-01
109 2 9.8139501460100007e+00 1.4912284802760000e+01 2.0523331562720002e+00
110 2 1.1530011041130001e+01 2.9919985114140002e-01 1.7285565733920001e+00
111 2 1.4559636719049999e+01 8.2317036485289996e-01 9.3182543316440007e+00
112 2 1.3021989581960000e+01 1.5711119401840000e+01 1.0549811885730000e+01
113 2 5.4919294688470002e+00 4.4398660256319999e+00 9.6816955606900006e+00
114 2 6.8559648338579997e+00 5.6224551876030002e+00 1.1171147416920000e+01
115 2 7.2123034135279998e+00 2.0486043914450001e+00 1.3152016531550000e+01
116 2 8.8119497027500007e+00 4.4734002070079998e-01 1.2514433298329999e+01
117 2 1.1098591835910000e+01 4.3671694093909998e+00 1.1667200089650001e+01
118 2 1.1919136755409999e+01 2.4466968920899999e+00 1.0651825098190001e+01
119 2 9.4477360200820009e+00 1.1839269481710000e+01 6.6375809426389996e+00
120 2 1.0101307243270000e+01 1.0516816796010000e+01 8.4599675378780006e+00
121 2 1.4452177345440000e+00 3.1777717169269999e+00 6.9048872797960001e+00
122 2 8.9062414502480003e-01 4.5114575197290003e+00 5.0399946414120000e+00
123 2 4.2534557243539997e+00 3.9356449001590001e+00 1.2738694970399999e+01
124 2 3.5034225250189999e+00 1.7753793421849999e+00 1.2227621640360001e+01
125 2 1.1307238314579999e+01 1.2534138628419999e+01 1.3568119110270001e+01
126 2 1.0468579948620000e+01 1.4267016945749999e+01 1.2297888993070000e+01
127 2 1.5099006144380001e+01 4.4894229814919999e+00 9.7664826605589994e+00
128 2 1.4699154561669999e+01 4.5131350231070000e+00 7.4618854329140003e+00
129 2 5.3648163993650000e+00 4.5349632906800004e+00 4.0738999264720004e+00
130 2 3.7341655837909999e+00 5.5565133051149997e+00 2.7322363179989999e+00
131 2 7.9922593196009997e+00 1.0527802423670000e+01 1.1898378772010000e+01
132 2 8.3485960319579995e+00 1.2072285061630000e+01 1.3691562551610000e+01
133 2 4.8583424722870001e+00 2.8083573302330000e+00 7.0565273042319996e+00
134 2 7.0039127756310000e+00 3.7246475262200001e+00 6.6453196641150001e+00
135 2 1.0969090452150001e+01 4.9522451220640002e+00 1.5422777113520000e+01
136 2 1.0197446261800000e+01 3.0754126819369998e+00 1.4283202095449999e+01
137 2 8.5817086002499998e-01 2.2829573359130002e+00 9.6803653877149998e+00
138 2 2.3504134303200002e+00 4.0703113087720002e+00 1.0016892433170000e+01
139 2 1.4882487004930001e+01 5.2885703527930001e+00 1.4249948053700001e+01
140 2 1.3557245518640000e+01 7.2040221007909997e+00 1.3933069652600000e+01
141 2 1.0510644947730000e+01 1.1675208533390000e+01 3.7968773912990001e+00
142 2 8.1640197420689997e+00 1.1350858398410001e+01 3.5999482028459999e+00
143 2 1.0428587175290000e+01 8.4478617619410006e+00 1.2907540419180000e+01
144 2 1.1088838467960001e+01 9.4424426146170006e+00 1.0926954787940000e+01
145 2 1.1826055689710000e+01 9.5803236864850003e+00 5.3443171285900002e+00
146 2 1.3436847004270000e+01 8.6690424569139992e+00 6.7789117594470003e+00
147 2 3.6436730960790000e+00 8.2456182525309991e+00 1.3214641384640000e+00
148 2 3.0569820139180002e+00 8.6623047913929998e+00 3.5180753613369999e+00
149 2 9.1717300866899993e+00 3.8733022027290001e+00 9.2901634780949998e+00
150 2 8.0268746720109991e+00 1.8083498985960000e+00 9.0779322877540007e+00
151 2 1.7351564711200000e+00 1.2040311984650000e+01 5.1672177473280003e+00
152 2 2.9631789028380000e+00 1.1984454401530000e+01 3.1577146427720000e+00
153 2 1.5624016375460000e+01 7.1455032162689998e+00 1.1580830385160001e+01
154 2 1.3831979365830000e+01 8.1217600399369996e+00 1.0352655851230001e+01
155 2 5.5257649773550002e+00 7.6102687234059996e+00 5.0846448987670003e+00
156 2 5.0892711869239999e+00 9.8337309296819999e+00 5.8496964830389997e+00
157 2 8.3107639732479992e+00 8.8601176034659996e+00 1.4422973746100000e+01
158 2 8.4477315746319999e+00 6.5264233918360004e+00 1.4769129320010000e+01
159 2 9.6706917901879996e-01 1.2105762657470001e+01 1.1347562685600000e+01
160 2 1.5835353966079999e+00 1.0636310845410000e+01 1.3093884342939999e+01
161 2 1.5196991703649999e+01 1.5442175363610000e+01 6.3048950859819997e-01
162 2 1.6295409723799999e+01 1.3443340392580000e+01 1.0855883344230000e+00
163 2 7.3005036749540002e+00 1.5649881763640000e+01 8.6663199281339998e-01
164 2 8.8325846851590004e+00 1.5442971148040000e+01 1.5273309432150000e+01
165 2 2.3822939127709999e+00 1.3084288208989999e+01 1.5747531526840000e+01
166 2 2.9398874796380001e+00 1.0823722224330000e+01 1.6049328888790001e+01
167 2 1.9349084657890001e+00 1.5661383635020001e+00 3.9577211137189998e+00
168 2 2.9967251611290000e+00 2.5162784517299999e+00 2.0727078255600002e+00
169 2 1.4291800278949999e+01 1.1517678989589999e+01 1.0696311300860000e+01
170 2 1.2977970925330000e+01 1.1892008311970001e+01 8.7859019496940007e+00
171 2 1.4570123152500001e+01 6.5431993426529997e+00 4.9472549721129999e+00
172 2 2.9677299605050000e-01 7.1123784189999997e+00 6.1646992153140001e+00
173 2 1.5433831108330001e+01 1.7466756580439999e+00 3.9256154394060001e+00
174 2 1.4978770116360000e+01 1.6105371946060000e+01 5.3276145102559997e+00
175 2 1.8622295276909999e+00 1.1503617073739999e+01 8.4002535062339998e+00
176 2 7.2759926290450005e-01 9.5872454291100002e+00 9.0984070149589993e+00
177 2 2.9544505584289998e-01 2.4129039101730001e+00 5.1610483593900003e-01
178 2 1.4344835176669999e+01 2.8466827457660000e+00 1.5772668196320000e+01
179 2 7.7245471081500003e+00 1.4131653440450000e+01 9.9708788947899993e+00
180 2 8.9733125779799998e+00 1.5056567575920001e+01 8.2370536712650004e+00
181 2 3.8981325184359998e+00 1.5587417519140001e+01 5.7633538867540004e+00
182 2 1.7254969258649999e+00 -1.2701289199980001e-01 6.5378323987900000e+00
183 2 1.2616134610440000e+01 1.2988989843100001e+01 1.7111367670850000e+00
184 2 1.4244523895340000e+01 1.3452724241020000e+01 3.3096055216500000e+00
185 2 1.6009247048519999e+00 8.0839454094800006e-03 1.4482790034830000e+01
186 2 1.4104764095130001e-01 1.5680283905750001e+01 1.2769695356060000e+01
187 2 -2.1440729355320001e-02 1.4019002841090000e+01 9.0286502534230006e+00
188 2 1.7681161315930001e+00 1.5363310379060000e+01 9.6483570893740005e+00
189 2 8.6082459608280004e+00 8.1306038747329996e+00 9.6596152331450007e+00
190 2 7.2318134961510001e+00 9.8604078686530006e+00 8.7771894337000003e+00
191 2 1.2045109803590000e+01 1.5550236354200001e+01 1.4554891482640000e+01
192 2 1.3653488216280000e+01 1.3933233668950001e+01 1.5078159509680001e+01

Velocities

1 2.7445877231520002e+00 4.6532806548999996e+00 1.6221542302680001e+00
2 7.3908567726490002e+00 2.5051369421429999e+00 1.6941807006239999e+00
3 5.1763313630259997e+00 -5.2967969840500002e+00 4.1853454819190000e-01
4 -1.6993419592970000e+00 1.4230907577150000e+00 3.2837705015770002e-01
5 4.5317874524030000e+00 -3.5931743101659999e+00 1.1449678471410000e+01
6 -1.6530764103350000e+00 1.5170180386929999e-03 2.0399939931789999e+00
7 3.0321187894550001e+00 -4.5325663803509997e+00 -2.5418649927270001e+00
8 9.7781758112489996e+00 -1.1476570800479999e+00 9.6559990271620002e+00
9 9.6430030798490005e+00 -2.1967979897330001e+00 -7.3678463732510002e-01
10 -2.8725728162310000e+00 1.5606701528069999e+00 4.5041715758969998e+00
11 1.2945631147700001e-01 1.6144234480030000e+00 -3.9267409200280001e+00
12 1.1870340648769999e+00 -3.0048007892960000e+00 -4.4088794310560004e+00
13 1.3636071980160001e+00 4.5080202535409999e+00 -8.4429914111880002e+00
14 3.0633335199760001e+00 3.6367450861970001e+00 5.5185959566690004e+00
15 4.1615425431760000e-01 -6.3129839443079998e+00 -1.2009559125739999e+00
16 -7.6196299008240000e+00 -8.1751289502389994e+00 -2.2269034215710000e+00
17 8.8774236471839991e+00 -3.4918127798560001e+00 -3.4586839477039999e-01
18 -6.8917276509710002e+00 -6.0638120591589995e-01 -4.1980911318359997e+00
19 -4.5008429064079998e+00 -3.3189642039369999e-01 2.0183015195939999e+00
20 3.3531924480200002e+00 -5.2474977116500003e+00 -3.9603759969999999e+00
21 4.0798565506450002e+00 -2.8985017831629998e+00 3.9212307954390000e+00
22 -5.3681241197700000e+00 1.9168218714280001e+00 -1.2024034903980001e+00
23 2.4092630018980001e+00 -6.1944256039740004e+00 2.9263072167699999e-01
24 -7.4759500141839998e+00 1.1977181726660000e+00 4.5282658766620001e+00
25 3.1094888658520001e+00 -3.9963009935330001e+00 -4.1508744025760000e+00
26 2.9413528377359999e+00 -7.8483289711839999e-01 1.8031358676650000e+00
27 -1.6609042747010001e+00 4.7426781174270003e+00 -4.0577548564220001e+00
28 2.9014341174939999e+00 -3.0916738091429998e+00 1.2835884724640001e+00
29 8.0989691931220005e+00 -5.2685478866719997e+00 8.1249825185399995e+00
30 1.0584440011680001e+00 3.7119539194189999e+00 -4.1915198059460002e+00
31 1.6374253241320000e+00 1.0260107161120000e+00 9.4873442539779997e+00
32 7.8798234359199997e+00 3.0641946627630001e+00 4.1700347710549996e+00
33 -2.1699185956520002e+00 5.2795297327880002e+00 -2.2220397760330002e+00
34 1.0484104591360000e+00 2.0769093495940001e+00 3.9099567622770000e+00
35 -4.5629234916960000e+00 4.1707101774739996e+00 1.0570313463050001e+01
36 8.6710968217029993e+00 -3.0157070326020001e+00 2.1157791050960002e+00
37 5.4320187321260001e+00 -2.6453183785209999e+00 4.8629251586160001e+00
38 -4.5120199958550000e-01 -7.2410187192529998e+00 -3.1029018827470001e+00
39 -6.0266898918720004e+00 -2.3892587556259999e+00 -8.5597514753499997e+00
40 -1.7625062293839999e+00 5.3109134928420003e+00 6.9181511604030002e+00
41 -1.5372457039020000e+00 -3.2762851205749999e+00 1.5385489895230000e+00
42 6.3648754692729996e+00 1.3729020725940000e+00 8.7987300269669999e-01
43 -6.4474968517319997e+00 3.3804865517790001e+00 8.1296194598059994e+00
44 -4.8552017428639997e+00 -3.4293940487320000e+00 5.9522322894609996e+00
45 -4.9910002872639998e+00 -1.8570274773530000e+00 -3.5786770192850001e+00
46 4.3671451510589998e+00 -1.5619377479360000e-01 4.8937401313590003e+00
47 7.0869675978649997e+00 -2.6332850756260000e+00 -2.8932935375570001e+00
48 -1.2255368568809999e+00 9.9609475551750002e+00 3.4570194929290001e+00
49 5.8992604426820003e+00 -9.2663020005140009e+00 -1.9636107483680001e+00
50 -7.6020728058450004e-01 3.1246468460769999e-01 -2.9930157494790000e-01
51 8.0470477731750001e-01 3.9962021286530001e+00 5.3319717986660002e+00
52 1.1509958325870000e+00 -6.8730022972329996e+00 -9.8073351555220001e-01
53 -6.0616253698209999e+00 -4.5613645538320000e+00 -1.1776739357670001e+00
54 -1.0867831050630000e+01 1.1333054880219999e+00 1.2784489660420000e+00
55 -2.2341278398780000e+00 1.9718115831209999e+00 -3.1379283370820001e+00
56 5.0951705997639998e+00 6.0506063654659998e+00 9.0969807457999998e+00
57 5.5285641765780003e-01 9.4555103744120004e+00 1.1694095060380001e+00
58 5.1225815208909999e+00 -8.5332986522449996e+00 -5.1869164803129997e-01
59 1.4655000816929999e+00 -4.4617275311829997e-02 -9.2536530657499991e+00
60 8.0966250723919995e+00 -9.8622941868629999e-01 -8.5375579504769998e+00
61 -4.4790538731470004e+00 3.3348903693360001e+00 -3.2013784687919999e+00
62 4.0775130966770003e+00 3.2152874668950000e+00 -4.6169287291229999e+00
63 4.7438559724150000e+00 1.1955232964489999e+00 -1.2398611847190000e+00
64 1.0969583080740000e+01 3.9535195678839998e+00 -2.6244956101739998e+00
65 -1.1796044749350001e+00 -5.1615366456130003e+00 3.3831999301170002e+00
66 1.8128320214950000e+00 -9.5349044148770001e-01 3.1062534212210000e+00
67 -5.3973836472279997e+00 5.3669492080290002e+00 4.5880013673729998e+00
68 1.3987033662020001e+00 3.6644363556089998e+00 -1.3146136579070000e+00
69 -4.5378058107730002e-01 -3.2078194495019998e+00 4.7608502543000002e+00
70 -1.0875946505430001e+00 3.1094396276539999e+00 -7.7212332602679998e+00
71 -3.6854375289079999e-01 1.5206799206220001e+00 -3.1151446449710001e+00
72 2.3657347431100000e+00 8.6470327314290003e+00 1.6057917861600000e+00
73 2.1313945799209999e+00 3.9013799278250000e-01 4.5346736521490000e-01
74 -2.2852142462170000e+00 -6.5969708443880002e+00 -1.9222276049150000e-01
75 -2.2198925590299998e+00 4.1902182104239998e+00 -5.3337638776600000e+00
76 -3.7650468462950002e+00 3.7224963598529999e+00 -4.2408808277260002e-01
77 2.3478831053980001e-01 8.8378664433279996e-01 2.7740891610420002e+00
78 7.1197267150789996e+00 -1.0565713862719999e+01 -2.1984760565050001e+00
79 2.5181914241499999e+00 4.9159209369330004e+00 1.3484200321340001e+00
80 -6.8406832433689999e+00 7.1406355737949996e+00 -3.5559713460219999e+00
81 -1.6382799122400000e+00 -8.1642210908150004e-01 6.3541615474750002e-01
82 2.6088270388730002e+00 1.0519425130690001e+00 -4.1443535024139999e+00
83 -2.2767568681529999e+00 1.5606615965290001e+00 2.2362103544899998e+00
84 -7.7572045560909997e+00 4.2544050586450002e+00 7.9948278392779999e+00
85 -2.7202001856900000e+00 -4.8639780400880001e-01 9.3595499161310003e-01
86 -1.6577726629039999e+00 -1.7835503430080000e+00 -1.7014067117270000e+00
87 -4.7162350463250000e+00 8.2767996553620005e-01 1.5726785813730000e+00
88 -9.0507625233169993e+00 -3.3652705958250002e+00 -7.7045787627650002e+00
89 3.9660741141770001e-01 3.1360746948419999e-01 -2.8279620874110001e+00
90 -1.0380057214039999e+00 2.2344415852130001e-01 1.8043173091650000e+00
91 3.1366775328039997e-01 1.1925921229000001e+00 -5.9241769324379998e+00
92 2.6665114882980001e+00 -2.2687033102220000e+00 -9.9898888184970003e-02
93 6.0961191627330003e-01 5.9036719233900001e+00 8.4458202051760001e-01
94 -3.6566622687199999e+00 3.1332625676829999e+00 2.0932017777030000e-02
95 -5.1515116524379998e+00 3.3092765801309998e+00 3.8843288140890002e+00
96 -1.0320871870660000e+00 -3.1514069538139999e+00 3.1779268456840000e+00
97 7.2216162878420000e+00 7.6803124126870004e-01 -2.9222214999550000e+00
98 3.9201424092089998e-01 4.9955678435250004e+00 -2.2654062100860001e-01
99 4.1254780054009998e+00 4.2711486931560000e-01 2.7844220310560002e+00
100 -2.2616679259889998e+00 -3.2080899743960001e-01 6.0103806657090004e+00
101 -2.7299007046999999e+00 -3.5117626525840002e+00 8.1259672707020005e+00
102 -3.8085779763490002e-01 -2.6319041469050002e+00 -1.4230150541890001e+00
103 -1.8855378109090000e+00 -4.0297354816550000e+00 -9.1902062587489997e-01
104 -1.0055475269659999e+00 -5.1073034353100000e-01 -1.0166733843310001e+00
105 -1.8475387871300000e+00 -3.3148288283920002e+00 -1.0893002635189999e+00
106 -4.6755441968479996e+00 -2.7954272095400001e+00 6.5249376320000003e+00
107 -6.6739735888889999e+00 -6.2526508259659996e+00 5.5395286152869998e+00
108 3.2951579331340000e+00 -2.7827421243980002e+00 2.8773528285640002e+00
109 -4.7270551380450003e+00 -5.7448410919450001e+00 -9.9236134084110006e+00
110 -3.3785676348339999e+00 1.1596123383429999e+01 -2.1743371569229999e+00
111 6.1359971582039998e+00 3.3646218992049999e+00 -3.6700878043129999e+00
112 5.1007618002499999e+00 2.4385579095169998e+00 2.0635545550900001e+00
113 -3.1027649539150000e+00 -7.2120764031080000e+00 1.3613589406700000e+00
114 8.7434870203399999e+00 2.2420071728360000e-01 2.2476950789940000e+00
115 -1.5249709544929999e+00 9.2700970398389995e+00 -5.5193412057789999e+00
116 -2.6363138885580000e+00 -1.0389284159459999e-02 -1.7657493042729999e+00
117 -4.4615167787700001e+00 -4.5992039137929996e+00 1.9641999305390001e+00
118 5.0614776850340002e+00 -2.0652205326800002e+00 4.1271745306940000e+00
119 -6.6617850827770004e+00 -4.7225316365839998e+00 -2.7237372480770001e+00
120 7.9131618750790000e-01 -3.3976636184150002e+00 -6.6781563945380000e+00
121 -4.5506554344229997e+00 6.8190432652660000e+00 -5.2741491836870003e-01
122 9.6914885321679994e-02 3.6570829236520002e+00 -3.8858376973350000e+00
123 2.0545854473520002e+00 4.0480863056100003e-01 6.6746655183009995e-01
124 2.7108722858280001e+00 3.2179596597389999e+00 2.0206601215390001e+00
125 -3.4594926017440000e+00 -4.0450598866689997e+00 -1.8301429507680000e+00
126 1.0537511265110000e+00 -2.4912182472000000e+00 -4.6248247041510000e+00
127 3.7324725739050002e-01 2.1592875482389999e+00 -5.8406366500470002e+00
128 -3.3714599035439998e+00 -3.4042129907290000e+00 -1.0565471153860000e+00
129 -2.6603631452749998e+00 8.3621890959890005e-02 2.4263794201460001e+00
130 -4.7736475298269996e+00 6.4605168061429996e-01 6.7919931721799998e+00
131 2.3111329503920000e-01 1.4537860215439999e+00 2.1485736758680001e+00
132 -6.6763171422970000e+00 2.8832923576109999e+00 -4.1423752418650004e+00
133 -3.4153406559650001e+00 -1.2058355053330001e+00 2.8764730359250001e-01
134 7.0677649733940001e-02 1.1745855256090001e+00 4.9150544636229997e-02
135 1.0390973482200001e+00 -3.2775346839539998e-01 1.4365976418740001e+00
136 2.3869032176429998e+00 3.2505547448150001e+00 6.6554854966150003e+00
137 -3.6401628428950001e+00 -9.4775608862330003e+00 2.8823089761739999e+00
138 8.0466626261820000e+00 -1.9346418314580001e+00 -5.8779305391690002e+00
139 -7.9182293979920004e-01 4.9807664251650001e+00 -6.3723717652319998e+00
140 1.0468691759430000e+00 4.2060885061619997e+00 6.3984865167869998e-01
141 -4.5120079348530001e-01 2.5289758318150002e-01 -8.6988500250169998e-01
142 5.2129233023120003e+00 -1.3506984656170000e+00 -6.3262659988200003e+00
143 3.5790537259980000e+00 -1.7357566882650000e+00 4.8135567677280000e-01
144 -2.4508768609590001e+00 -1.1467898407920001e+00 2.4205861721369999e+00
145 -1.9135901002550000e+00 2.2864970678619998e+00 -8.0084698846010003e+00
146 1.7990809399150001e+00 -7.3678000235439994e-02 -9.1446334577069999e-01
147 4.8956524954270000e+00 -1.6456090675320001e+00 2.3191547197530000e+00
148 4.7179955477949997e-01 -4.0803565398890003e+00 4.9560611785540001e+00
149 -1.1299241914970000e+00 -7.0744066373690000e+00 -3.4412657839229997e-02
150 -1.1649737907969999e-01 4.2578609778079999e+00 1.6882920187170001e+00
151 -1.7811326590870000e+00 -2.7179694578330000e+00 -2.4228695967010001e+00
152 -2.6990707006370002e-01 -5.7724167014000001e+00 -1.0837087736559999e+01
153 4.2376501321419999e+00 -3.3325824448129998e-01 -1.3989129973550001e+00
154 5.7158843290580004e+00 5.5152648325250002e+00 -3.7361424261870000e+00
155 1.3476475143550001e-01 2.4780079909569999e+00 1.9074730433939999e+00
156 -4.5444478744480001e+00 -7.6004258126049997e+00 3.4457589159239999e+00
157 5.1919125950489997e+00 -3.1531521922360000e+00 -9.7340132191419997e+00
158 -4.3796844249430000e+00 5.2384433541169995e-01 6.0412344016299997e+00
159 4.5111411638740000e+00 -4.1409270035030001e+00 -1.5028426342679999e+00
160 2.2938357785890000e+00 2.9071641170230000e+00 9.4338932538690001e-01
161 -2.5779269787799999e+00 -2.4843802521899998e+00 1.8961865738579999e+00
162 2.0888994263820000e+00 -1.1433834239089999e+00 5.5706743547980002e+00
163 4.8395748412280000e+00 4.6336210649999998e+00 7.9392731839149999e-01
164 -3.2271407267779999e+00 8.4327801026550002e+00 3.8459317107130002e+00
165 -2.4210757483830001e+00 -2.5739850115350000e+00 -3.4675109787620002e+00
166 -3.7278864517389998e+00 3.7329811318830002e+00 3.3638866445610001e+00
167 -9.6299725168289996e+00 4.4591610232679999e+00 -8.4926318577530002e-01
168 -1.9427417342750000e+00 -9.6448401059489997e-01 -2.7350910295489999e+00
169 -3.1976026202710002e+00 1.7030547707349999e+00 6.2593106428089995e-01
170 -1.3584929120210001e+00 1.9893183504890000e-01 -5.0973298537309999e+00
171 6.2396653816619996e-01 1.2981139169050000e+00 1.1110610100520000e+00
172 3.7631865064120001e-01 1.7786407459469999e+00 6.7379130574710002e+00
173 4.5763669525440003e+00 -3.2189187262309998e-01 -2.7119894225549999e+00
174 5.8774133883710000e+00 5.4505763433179997e+00 -1.0915567207250000e-01
175 1.6926600714100000e+00 1.3071646156650001e+00 -5.6966508670799998e+00
176 3.2382448053530002e+00 3.0493867906830001e+00 -1.3830503904080000e+00
177 -3.3059438048890000e+00 -1.1393782183559999e+00 1.1117077141360000e-02
178 -2.4446355735020000e+00 -2.0419385199570002e+00 1.6369279764369999e+00
179 5.2118322990410004e-01 1.5291109723050000e+00 3.6526406026800000e+00
180 1.0105917326420000e+01 -8.7620551244879996e-01 3.3410972964929999e+00
181 2.9822815688480002e+00 -2.9663326187179999e+00 -3.9044308516939998e+00
182 -3.6495382933450000e+00 -7.3355367205780002e+00 -4.7502641882090000e+00
183 2.3533902804990001e+00 1.2693257605670001e+00 -1.2678989667350000e+00
184 -4.9780125863659999e+00 1.2955105782420000e+00 -2.5231246618240002e+00
185 -3.4877329800140000e+00 -3.5158533608539999e+00 1.5953349514810000e+00
186 3.6526686010350001e-01 5.3730268612109997e+00 3.7670803143150000e-01
187 -1.1036255879840001e+01 1.2632436972740000e+00 4.9381467401390003e-02
188 -5.2373586486650003e+00 2.7345631464460000e-02 1.7894677542580001e-01
189 6.4190805663540003e+00 -1.2921696765599999e+00 1.8785048033289999e+00
190 7.5603793378249995e-01 -1.1539011582240000e+00 -8.6689249971100002e-01
191 -2.4996140083030000e-01 -1.7466287064690000e+00 -4.3183660917819999e+00
192 -2.1024886775130001e+00 3.1702851866500001e+00 7.0547989682309997e-01
