LAMMPS data file extracted from NVT dump, timestep 580000, units metal

192 atoms
2 atom types

0.0000000000000000e+00 1.6195563468200000e+01 xlo xhi
0.0000000000000000e+00 1.6195563468200000e+01 ylo yhi
0.0000000000000000e+00 1.6195563468200000e+01 zlo zhi

Masses

1 12.00000000
2 16.00000000

Atoms # atomic

1 1 2.6842137599479998e-01 1.6120565435080000e+01 2.5113850869009999e+00
2 1 2.6361441154530002e-01 9.1365056586600009e+00 4.7327403611190002e+00
3 1 5.1063703724860003e+00 5.4980751927359997e+00 7.1283340454999999e+00
4 1 2.1433883986120001e+00 1.3393885554970000e+01 6.6445550143440002e+00
5 1 1.2322755947059999e+01 9.2700441275020005e+00 1.1648228084980000e+01
6 1 1.2419642682810000e+01 5.2421503202529998e+00 7.9245992634759999e+00
7 1 1.5167539017030000e+01 5.4939162529700001e+00 1.1161326235890000e+01
8 1 7.3611690927830002e+00 3.7177838926739998e-01 6.3946978985999996e+00
9 1 1.0564480230779999e+01 6.2091950233170001e-01 1.3661070948570000e+01
10 1 9.8808862867760006e+00 1.4009972053780000e+01 1.0352034635730000e+01
11 1 1.0754247380240001e+01 2.5039329093550000e+00 8.1950743019780004e-01
12 1 7.8023789635989997e+00 8.0285909485199998e+00 9.5768184125310007e+00
13 1 9.4084162493299992e+00 1.5792741655740000e+01 3.4478158746070000e+00
14 1 1.4658185063170000e+01 1.3574804705940000e+01 5.0964579296209997e+00
15 1 3.5192810433780002e+00 7.5346904204499996e+00 4.2000318595969999e+00
16 1 1.1733739964640000e+00 2.0086855230620002e+00 1.2820876370020001e+01
17 1 4.8943582698610000e-01 4.7223537451390003e+00 2.4809726777560002e+00
18 1 1.2294486872760000e+01 1.0350553492810000e+01 7.4956405327729998e+00
19 1 7.1820197724260000e+00 1.0870371512149999e+01 1.2780313120870000e+01
20 1 1.4322212855689999e+01 1.0563765699319999e+01 1.3821170885370000e+01
21 1 6.8205654385400001e+00 1.4865032646800000e+01 1.3842781918380000e+01
22 1 1.1564146542770001e+01 7.5070054514450000e+00 4.9881873287350000e+00
23 1 5.6034061082670004e+00 9.0777172851790002e+00 1.6222656624730001e+00
24 1 2.7556552719600003e-01 5.8088129833200002e+00 6.2137155592999997e+00
25 1 1.1293179755080001e+01 1.0958760731780000e+01 3.8034521847070000e+00
26 1 1.1712310304839999e+00 1.4321247000380000e+01 1.0836174263980000e+01
27 1 2.9207438887480000e+00 1.1702158499070000e+01 3.4645711332809999e+00
28 1 6.7797057296860004e+00 1.2270042940710001e+01 9.5770283504039999e-01
29 1 1.4361247254569999e+01 9.9635796346429994e-01 1.3805541147580000e+01
30 1 3.7687244220670002e+00 2.7156978891339998e+00 4.5100459132969997e+00
31 1 1.5698162890210000e+01 8.6774426871259998e+00 8.7683042480379996e+00
32 1 2.4163917882320001e+00 4.6164268703830000e+00 1.0257043397380000e+01
33 1 9.1453250009440001e+00 4.1392993411490000e+00 4.9689864233119998e+00
34 1 8.5662971511160002e+00 6.0483534197319999e+00 1.4446036198010001e+01
35 1 1.3856735776860001e+01 1.3457843900729999e+01 8.9960688215139992e+00
36 1 1.4047781771280000e+01 4.8954303035639999e+00 1.5758477380760000e+01
37 1 4.6561264355579999e+00 1.4834423832570000e+01 3.5943065486640000e+00
38 1 1.5601383270850000e+01 2.3058772217449999e+00 7.2992460970959998e+00
39 1 2.2578786114070000e+00 9.3190510502210007e+00 1.3181712932300000e+01
40 1 2.9952169797220001e+00 2.4138295835419998e+00 6.4597895042669995e-01
41 1 9.2476721465829996e+00 3.6427087605959998e+00 8.5777417649520000e+00
42 1 1.0382495269870001e+01 8.6468606545789992e+00 1.5073617454030000e+01
43 1 4.3189556485810003e+00 9.3178787243559995e+00 8.7226758317860007e+00
44 1 1.3693903052980000e+01 3.6019468598979998e+00 4.0376178709730004e+00
45 1 1.3139681160400000e+01 8.7030495620440007e+00 1.3668218592370001e+00
46 1 9.4274757834470009e+00 6.4308597128620004e+00 2.6776736430989998e+00
47 1 1.0153286247470000e+01 3.9512721337440002e+00 1.2413031014050000e+01
48 1 1.3766998703320001e+01 1.4033443953400001e+01 1.3075473171450000e+01
49 1 7.3767052812509997e+00 1.3973552723339999e+00 1.3335509441509999e-01
50 1 1.5445467434059999e+01 1.1552120023050000e+01 1.1270360140290001e+00
51 1 2.5087169592129999e+00 7.5337951272739998e+00 2.3287921055840000e-01
52 1 6.4147246766580004e+00 4.5651150734229997e+00 2.9705592384260000e+00
53 1 1.0642030084889999e+01 1.3146180191459999e+01 1.5170800621880000e+01
54 1 6.2994468193069997e+00 1.3095286533330000e+01 8.5762409693859993e+00
55 1 4.9501683139079997e+00 2.9804877327439998e+00 1.3439371469110000e+01
56 1 5.0342429712329997e+00 6.9108602132770001e+00 1.2526963884220001e+01
57 1 7.4814693065229996e+00 8.8513339633670007e+00 5.4141783969280004e+00
58 1 7.3535998417260000e+00 1.6000768242790000e+00 1.0418186214830000e+01
59 1 4.2489257260339999e+00 6.1375658934819999e-01 1.1474360822170000e+01
60 1 1.2149491700380000e+01 6.1989486002719996e-01 7.0339255998969996e+00
61 1 1.2970328921069999e+01 1.5074324376770001e+01 1.2644665103129999e+00
62 1 1.6616535134160000e+00 1.3173009171900000e+01 1.5335093760419999e+01
63 1 4.3494789620600001e+00 1.1404947634420000e+00 7.4760868115749997e+00
64 1 9.5536607172330008e+00 1.2775445206210000e+01 6.4366286872409999e+00
65 2 8.9347431011669998e-01 1.6298591145000000e+01 1.5241310684300000e+00
66 2 1.5830739250360001e+01 1.6093671109100001e+01 3.5172845114919999e+00
67 2 3.0910197855549998e-01 9.0385728887679999e+00 3.5288231358969999e+00
68 2 1.6298266110640000e+01 8.9889413368200000e+00 5.8929705672220001e+00
69 2 3.9623756723030001e+00 5.3868942017489996e+00 7.3645277064240000e+00
70 2 6.2615208323519997e+00 5.6131942243959996e+00 6.9122393118690004e+00
71 2 2.0285465676959999e+00 1.3851189639399999e+01 5.5634985302829998e+00
72 2 2.1932100301770001e+00 1.2985195083830000e+01 7.7156057045250002e+00
73 2 1.2159760000660000e+01 8.1099072868600004e+00 1.1853728129169999e+01
74 2 1.2603937035370000e+01 1.0403737310060000e+01 1.1390040942800001e+01
75 2 1.2326950064800000e+01 4.1033232927420000e+00 7.6640049785680002e+00
76 2 1.2787593826069999e+01 6.3466955831520000e+00 8.0867245629089997e+00
77 2 1.4821986978860000e+01 6.1926366603420000e+00 1.1999134188910000e+01
78 2 1.5404783797069999e+01 4.7131381667019996e+00 1.0260852938759999e+01
79 2 7.5171663887560003e+00 1.6260949000589999e+01 7.5173126913130002e+00
80 2 7.3995949553760001e+00 6.2831019841589997e-01 5.2164743104279996e+00
81 2 1.0167167980600000e+01 2.2469906725819999e-01 1.4699814064730001e+01
82 2 1.0978050287340000e+01 8.8588098429679996e-01 1.2596375893110000e+01
83 2 1.0323271936570000e+01 1.3464956774830000e+01 1.1304430802850000e+01
84 2 9.4988364868099993e+00 1.4511591144570000e+01 9.3703842436990001e+00
85 2 1.1299232490110001e+01 3.0744436953949998e+00 1.6136876507379998e+01
86 2 1.0261588050589999e+01 1.9199204776170000e+00 1.7178892463800000e+00
87 2 8.2227917570050000e+00 9.1288229154099998e+00 9.5369290299280003e+00
88 2 7.3392706838450001e+00 6.9483090051680003e+00 9.6463385086829998e+00
89 2 1.0183328858930000e+01 1.6300917300479998e+01 4.1611788518079997e+00
90 2 8.6876710571300002e+00 1.5362540013669999e+01 2.6002759841919998e+00
91 2 1.4099760542869999e+01 1.4267972296190001e+01 5.8873543491999998e+00
92 2 1.5080586454380001e+01 1.2934779284770000e+01 4.1901993547320000e+00
93 2 3.3276884794989998e+00 7.6633010616390003e+00 5.3212090943249999e+00
94 2 3.6823629221880001e+00 7.3114154523870001e+00 3.0847542390229998e+00
95 2 6.3819613945789999e-01 3.0343648339280000e+00 1.2539690315970001e+01
96 2 1.6917948840149999e+00 9.6211747246449997e-01 1.2996152752210000e+01
97 2 1.5296050116569999e+00 4.2417202545360002e+00 2.6953359351780000e+00
98 2 1.5670704205550001e+01 5.2720136616730002e+00 2.2457695994429998e+00
99 2 1.1973221645120001e+01 1.0071650674110000e+01 8.5803280982140002e+00
100 2 1.2588076923410000e+01 1.0590771424950001e+01 6.3672749156419997e+00
101 2 7.3621602636430001e+00 1.1715760016719999e+01 1.2021445176869999e+01
102 2 7.0840452893670003e+00 9.9534407707210004e+00 1.3525410436120000e+01
103 2 1.3305011659580000e+01 1.1050615258540001e+01 1.4227216306890000e+01
104 2 1.5260115970139999e+01 1.0074099259520001e+01 1.3351718455489999e+01
105 2 7.7472796936539998e+00 1.5533390336260000e+01 1.3521242213310000e+01
106 2 5.9921660317859997e+00 1.4160610309839999e+01 1.4246205222880000e+01
107 2 1.0931568140240000e+01 7.6225917179770004e+00 5.9851653567580003e+00
108 2 1.2209043979490000e+01 7.4304337847010000e+00 4.0267079629270004e+00
109 2 5.6841453191779996e+00 9.8380332026139996e+00 2.5473211804550000e+00
110 2 5.4501501299279997e+00 8.2897747006229991e+00 7.8567165647600001e-01
111 2 1.6192344881200000e+01 5.1805590890179998e+00 7.1661507918009999e+00
112 2 5.2757422309879998e-01 6.4701539747009997e+00 5.2926746139430003e+00
113 2 1.2297699846280000e+01 1.1333401925030000e+01 3.3559223163500000e+00
114 2 1.0236291003890001e+01 1.0611641289220000e+01 4.1829632326950001e+00
115 2 5.5895178776879995e-01 1.5300708474440000e+01 1.0666162260720000e+01
116 2 1.7426876761160000e+00 1.3320373557360000e+01 1.1021765753170000e+01
117 2 3.4849868704190001e+00 1.0976142267940000e+01 4.2599915440269998e+00
118 2 2.3974934784030002e+00 1.2464049008929999e+01 2.6937844738550001e+00
119 2 6.8654868557809996e+00 1.3223568063620000e+01 1.5480472496310000e+00
120 2 6.6783996697590000e+00 1.1286643934660001e+01 2.7952845928999998e-01
121 2 1.5207442233060000e+01 2.1583725515249999e-01 1.4011262364860000e+01
122 2 1.3552030990520000e+01 1.8352096322450000e+00 1.3753324822050001e+01
123 2 4.0237326706729997e+00 1.5854274189930000e+00 4.4513174486629996e+00
124 2 3.5834445072830001e+00 3.8646028127070000e+00 4.6442112136949998e+00
125 2 1.5102697945819999e+01 9.6479786137439998e+00 8.4760632183719995e+00
126 2 2.2877086216190001e-01 7.8211823263870004e+00 9.1020608121559992e+00
127 2 2.2394442951090001e+00 3.9929706395200002e+00 9.3071087472829994e+00
128 2 2.6795089502890002e+00 5.2026854330440004e+00 1.1268522754710000e+01
129 2 9.3135749232340004e+00 5.2755996138220000e+00 5.3093084582570000e+00
130 2 9.2112905333609998e+00 3.0378471756800001e+00 4.5917458328990000e+00
131 2 8.4079850171640000e+00 5.6135554127910003e+00 1.5517750945270000e+01
132 2 8.6647559735040005e+00 6.5675950598890003e+00 1.3386915208820000e+01
133 2 1.3221930187420000e+01 1.4312488166880000e+01 9.5068655922820007e+00
134 2 1.4481684240540000e+01 1.2638014645449999e+01 8.4264985869649998e+00
135 2 1.3282158748780001e+01 5.7276913712630000e+00 1.5954262531540000e+01
136 2 1.4792328110580000e+01 4.0190678782770002e+00 1.5554803810990000e+01
137 2 4.6236958303920002e+00 1.5135524785210000e+01 2.4681431826829998e+00
138 2 4.8477431370649997e+00 1.4597880338670000e+01 4.7158602664069997e+00
139 2 1.5166280096119999e+01 2.4580905058529998e+00 8.3740426197190008e+00
140 2 1.6005569562369999e+01 2.1980240883139999e+00 6.2116914470250002e+00
141 2 1.7089696274240000e+00 8.2525203132870004e+00 1.3199743486399999e+01
142 2 2.7139437157940001e+00 1.0386377757709999e+01 1.3055557463200000e+01
143 2 2.1837809214139998e+00 2.5105568779320002e+00 1.6017802012000001e+01
144 2 3.7032781105130002e+00 2.2539417578090002e+00 1.5611082689510001e+00
145 2 9.2366727779649995e+00 4.6303691614750004e+00 9.2483769099409994e+00
146 2 9.3618274062389997e+00 2.7544343243789999e+00 7.8448851105559996e+00
147 2 1.0300377364479999e+01 7.7151578465080002e+00 1.5774288645570000e+01
148 2 1.0467742902359999e+01 9.4932347761369993e+00 1.4307877556430000e+01
149 2 3.8397074149289998e+00 1.0242957754640001e+01 9.3675520080580004e+00
150 2 4.7515019005430004e+00 8.5349654071520007e+00 7.9435442419809998e+00
151 2 1.3766358162710000e+01 4.5636983748770001e+00 4.7036668701400002e+00
152 2 1.3506193746610000e+01 2.6001375345770001e+00 3.3756230956350000e+00
153 2 1.3903480675240001e+01 8.0371557936499993e+00 1.8872415007570000e+00
154 2 1.2427512887590000e+01 9.4487509574389996e+00 8.0801672036399996e-01
155 2 9.3816178136460007e+00 7.6134199223949999e+00 2.9917452028740001e+00
156 2 9.5051702703370005e+00 5.3172370792850003e+00 2.4179988170170001e+00
157 2 1.1148599200730001e+01 4.5827205818139998e+00 1.2382337658579999e+01
158 2 9.1700763406890005e+00 3.3250814226949998e+00 1.2299545832530001e+01
159 2 1.2856500411670000e+01 1.4741558890380000e+01 1.3125463322980000e+01
160 2 1.4661342865280000e+01 1.3302317476900001e+01 1.2910249955050000e+01
161 2 6.8810939585990001e+00 3.4329950475819998e-01 1.6412334407980001e+01
162 2 7.7320172152050004e+00 2.5186884627090000e+00 -2.0458016107779999e-02
163 2 1.5327203754579999e+01 1.2725642941829999e+01 1.1225949461950000e+00
164 2 1.5480518037660000e+01 1.0376299982370000e+01 1.1890331666680001e+00
165 2 2.1526611706829999e+00 6.4625990810550000e+00 4.5677847360390000e-01
166 2 2.8880942976830002e+00 8.6414635924439995e+00 7.9191987776619996e-02
167 2 6.5504516078690003e+00 5.7005804729839999e+00 3.2761128664060002e+00
168 2 6.4032026633320003e+00 3.4815511472809999e+00 2.6164420986980002e+00
169 2 9.5547433969389992e+00 1.2913296994990000e+01 1.4847946366310000e+01
170 2 1.1779830515960001e+01 1.3338745176180000e+01 1.5425620376310000e+01
171 2 6.7171081082919999e+00 1.2419012801519999e+01 7.6753674616919998e+00
172 2 5.6666313038279998e+00 1.3664533652999999e+01 9.3971559971780003e+00
173 2 6.0247269618550003e+00 2.5879797894070000e+00 1.3610915784339999e+01
174 2 3.8304222471570002e+00 3.3792347527829998e+00 1.3367669174390000e+01
175 2 4.9509469951899998e+00 7.7377492177639997e+00 1.1691205502980001e+01
176 2 5.0899319969989998e+00 6.1463361163660002e+00 1.3429218663860000e+01
177 2 8.0749523735810005e+00 9.7976909132640007e+00 5.7411870985900002e+00
178 2 6.9835087309230000e+00 7.8336099325810000e+00 5.0739523699850002e+00
179 2 6.6251009466759996e+00 2.2973405493860000e+00 9.7863327596509997e+00
180 2 8.1498585159390000e+00 8.8458538730909997e-01 1.0880924028660001e+01
181 2 4.8149890162420004e+00 1.5945854746849999e+01 1.2008224693440001e+01
182 2 3.6805723750960002e+00 1.4858379646569999e+00 1.0960055028499999e+01
183 2 1.1356288532510000e+01 1.6005778186430000e+01 7.3544201456920000e+00
184 2 1.3003468122619999e+01 1.3980463175760001e+00 6.7851388322670001e+00
185 2 1.3643380095950000e+01 1.5586956041880001e+01 4.8366368459550002e-01
186 2 1.2284115918460000e+01 1.4587235721360001e+01 2.0811558331920001e+00
187 2 2.3510793730000001e+00 1.4064637261600000e+01 1.5656969455090000e+01
188 2 9.8331749019140002e-01 1.2232361612429999e+01 1.5108561708170001e+01
189 2 4.4143242906899998e+00 2.3022479304200001e+00 7.6035040607699997e+00
190 2 4.3076693960989996e+00 1.6187206193470001e+01 7.4704984738910003e+00
191 2 9.0992577712880003e+00 1.3651853486269999e+01 5.7836225237340004e+00
192 2 1.0044431197600000e+01 1.1916170698800000e+01 7.0523356639790000e+00

Velocities

1 8.1239420013429999e+00 1.1627233096520000e+00 3.4198620029159998e-01
2 8.1833370639149994e+00 -1.8042320763040001e+00 -2.6281142014009999e+00
3 7.5777132927210000e-01 4.2917772269809999e+00 3.1332044455800001e-01
4 8.5856632343610002e+00 5.4726697557700001e+00 6.4495515962840004e+00
5 -4.0522288046019996e+00 4.9496088921519998e+00 1.0053828433200000e+01
6 -4.2774685937710000e-01 3.8348968367720002e+00 -3.2717941826199999e+00
7 4.9906867162750004e+00 -3.3899451724390000e+00 3.3650595542600001e+00
8 -1.2117352315090000e+00 3.1492872595470001e-01 -5.5765296884559996e+00
9 -7.2837057687330002e+00 1.9329161894180000e+00 7.5697606632119996e-01
10 3.9542633403299998e+00 -4.4412170062450000e+00 -7.5161445576389996e+00
11 -2.4672159465060002e+00 3.0100335752400000e+00 1.0208257165510000e+00
12 -7.4148699616680003e-01 -4.8180130993839998e-01 -1.9298915438330000e+00
13 -3.7410873765310000e+00 -1.1861103005239999e+00 1.6385469856110000e+00
14 3.3477389612990001e+00 3.8211275376030002e-01 -4.7872919226899997e+00
15 -5.7220013172680000e+00 -7.6374961970489998e+00 -1.5872662843209999e+00
16 6.2766108555690003e+00 -1.0392117289870001e+01 -4.6214272414149997e+00
17 6.7246235967279997e+00 -1.0951552294800000e+00 4.6901516478990004e+00
18 -6.3756597577559999e+00 -3.8032186110569999e+00 -1.3596476228209999e+00
19 5.1769486757810004e+00 2.5602140242660001e+00 8.0278455695649995e-02
20 8.0789633774829994e+00 -2.1540411081389998e+00 9.4753859834940002e-01
21 -1.5652170114330000e+00 -7.3667498358119998e-01 -9.7994874164559995e+00
22 -3.5588293540490001e+00 4.4924968696400001e+00 -2.5449534363019999e+00
23 -4.3772903608389999e+00 3.6400634711280002e+00 -1.7842339865160001e-01
24 -1.0547060807480000e+00 2.3089898648629998e+00 -6.0816617255409999e-01
25 3.2320869136660000e+00 4.2762480717020002e-01 -1.2001462105520000e+00
26 -3.3978358496680001e+00 -2.3159817449180000e+00 -7.6541536484340006e-02
27 1.1698124155080000e+01 1.6106727485640000e+00 -3.2992757367809999e+00
28 4.5257198227800000e-01 5.0729914075150004e+00 1.3600277796310001e+00
29 -2.4393738943229999e+00 1.7181124519140001e+00 -4.8948360804510003e+00
30 -1.5135056219040000e+00 -2.7453315737969999e+00 -5.9496357169129999e-01
31 -3.2511514554799997e-01 3.0955549696180001e-01 3.0186901767230001e+00
32 8.4526331598150009e+00 -4.0556830530300001e+00 -4.8772239480480001e-01
33 5.6338928921709996e+00 7.9713730400699996e+00 8.3981834640279995e+00
34 -1.4682126981070001e+00 -8.6768988984230000e-01 -2.0596986741420000e+00
35 -4.9421075096039999e+00 -2.1833586589200000e+00 1.1995568019909999e+00
36 1.8420236889120001e+00 -3.5592836095670002e+00 -1.2479716693329999e-01
37 -5.0298422367350000e-02 2.6122989124350000e+00 5.5133041380329999e+00
38 1.5967616587980000e+00 4.1115885496670002e+00 5.1424056996339997e+00
39 -4.1545453227170004e+00 2.3728895875089999e+00 -5.0160248985450000e+00
40 -1.8161291726230000e+00 -3.0024532069530001e+00 -5.4146304756949997e+00
41 5.4064649311560000e+00 -8.4582392060750000e-01 -3.6375037427989998e+00
42 -2.7976068424129998e+00 -6.0050792691510004e+00 4.9161966982610004e+00
43 -6.7410334919309998e+00 1.1074459916510000e+01 5.3610170041230001e+00
44 7.6353286605019999e-01 -6.6546544273730002e-01 1.4937951004070000e+00
45 2.9600900152710002e-01 -5.8745227022810003e+00 -5.0791724529230002e+00
46 4.0666294977569999e+00 -8.1596597395439993e-02 -2.6520238365959998e+00
47 -4.8956538559210000e-01 5.9629362749409998e+00 -1.0178070218580000e+00
48 -5.8348640353759995e-01 5.2565615216779999e+00 1.8585751948010001e+00
49 -2.4420701357649999e+00 1.3633255098649999e+00 4.6877818973089997e+00
50 7.3130358435050002e+00 -3.4366549543909999e+00 2.5157840271200000e+00
51 3.0659190813869999e+00 -1.8773955456119999e+00 -9.1772563032810002e+00
52 -2.2517358631579998e+00 3.7678605066830002e+00 5.0024818923490000e-01
53 -5.5280831100320000e+00 2.6280625594170002e+00 7.6623149871620004e+00
54 -6.3867982206389995e-01 -5.4912168220940005e-01 -1.3689080731190000e+00
55 5.2380212250970004e+00 -2.1490864884400001e+00 4.5310721467999997e+00
56 5.9979143197029998e+00 6.9500952245500003e-01 -3.3480158394549999e+00
57 -2.1307201921329999e+00 -2.6690283336129998e+00 5.5148000957220003e+00
58 3.6920790242589998e+00 1.5234963409910001e+00 -8.1680141085140008e+00
59 -5.0083927676820004e+00 -4.3198772818469999e+00 -1.0333720461989999e+00
60 5.4365345705959998e+00 -1.2762054832240000e+00 3.3515764420849998e+00
61 -5.9017636118420000e+00 3.8914040343649998e+00 1.1560284250779999e-01
62 6.4844657175179998e+00 -2.4905957079180001e+00 8.5345394114520001e+00
63 -5.6011267487100003e-01 -5.1065593808610004e+00 -5.0183274402159999e+00
64 -1.1956266741249999e+00 1.4999434888640000e+00 4.4875293349519998e+00
65 4.0010039360569998e+00 3.3116092369810000e+00 -4.9944918254230002e+00
66 -8.1783253457850003e-01 4.8590986820169997e+00 -6.2357782216619997e+00
67 -1.6211038653190000e+00 -4.1839295462959996e+00 1.0315349325310001e+01
68 1.5832565217700001e+00 1.8589677277220000e+00 -6.6698030090589997e+00
69 7.0352767906170000e-01 -4.7241070056869999e-01 7.1983143977620001e+00
70 2.9532204046639998e-01 2.6429551695239999e+00 -4.8277442925620004e+00
71 -1.0334299401550000e+01 -7.5634490688750002e+00 6.9134796121300002e-01
72 -6.6502001401589999e+00 -4.5606809031240001e+00 5.4444616482340003e+00
73 -1.4666014548380000e+00 -8.2267120803659999e-01 -3.7486738906129999e+00
74 -3.6471362511629999e+00 -2.4107731472460001e+00 7.4501890890160005e-01
75 5.3318880864620004e+00 -1.1399430705980000e+00 1.2712286760899999e-01
76 -2.9501251009210000e-01 4.2605755597340000e-01 -1.3854982833589999e+00
77 4.6962461674279998e+00 -3.1602707397190000e+00 6.2058716341610003e+00
78 -3.6687224600350001e+00 -6.5762930950940000e+00 -3.0037243844180002e+00
79 3.8722842736379999e+00 5.2286102378740003e+00 -2.3898819288070001e+00
80 -4.4018347634649997e+00 -1.6806839788920001e+00 -1.6694128017370000e+00
81 3.3369844098539998e+00 2.7696641054630000e-01 -3.2238457252230002e+00
82 1.3581302897630001e+00 -3.0983338870310000e+00 4.0229371077870004e+00
83 -1.9515135363170000e+00 6.9597864814629995e-01 -5.1422849561770001e-01
84 2.3174513500520000e-01 -8.6853994501550003e-01 -5.4546603597469998e+00
85 -3.4140754992060002e-01 7.8108705532550005e-01 3.4341765247540001e+00
86 -2.0761454066299998e+00 -1.3857831470910000e+00 -3.8643628650430002e+00
87 -7.8985669816339996e+00 3.0877632909920001e+00 3.5694753874790002e+00
88 -7.1064943210060001e+00 5.0267754336890000e+00 4.5378773227750002e-01
89 6.2868036626629997e-01 2.2179712125840001e+00 1.6366222324990001e+00
90 3.5557146850839998e+00 4.6956537562950000e+00 7.5593744276429997e-01
91 4.7509225324109998e-02 -9.3859380806279997e+00 3.4154982214800000e+00
92 7.5902590218020005e-01 3.3697170314939999e+00 -4.9307088478469999e-02
93 6.7406406325960004e+00 6.8921913223780003e+00 4.5463252674510002e-01
94 5.6435397285460001e+00 4.9178618540979997e+00 3.8592750328240002e+00
95 -5.4014611523390004e+00 -3.6071406374400001e+00 -1.3307189223439999e+00
96 -4.7039246939119996e+00 -4.5982689282970002e-01 3.5483945083749999e+00
97 -2.3249748364440001e-01 3.3735859658809999e+00 2.2992090634009998e+00
98 -9.5637477039620000e-01 -2.7255281450009998e+00 -1.7776141285330000e+00
99 -1.5635454896159999e+00 -6.9640625747340001e+00 4.1404926290590000e-01
100 -7.9834076758519998e+00 1.0655789377439999e+00 3.0089097408029999e+00
101 2.3729084559500002e+00 1.8165016359999999e+00 6.4204189311000004e+00
102 3.0094595621529998e+00 -1.7603512280540001e-01 -5.0155922862390003e+00
103 5.3821363917350000e+00 -2.8365034983339998e+00 4.8732822675540000e+00
104 1.7038953336370000e+00 4.1811409851550003e+00 -1.8455974565940001e+00
105 -2.0234838443880001e+00 4.0015069658100000e+00 -2.4311594999819999e+00
106 1.1521306966370000e+00 3.0286967449079998e+00 -3.4901798692320001e+00
107 3.7079389884150000e+00 3.7021952268649998e+00 -3.0531695042160001e+00
108 6.7306191692380004e+00 -3.2592570278660000e+00 3.3356526422239998e+00
109 -2.7289187577749998e+00 5.7572917603460005e-01 8.7960160383849995e-01
110 -5.9147419035639998e-02 -8.6434464637260000e-01 -6.6244087249160000e+00
111 7.1919972634200002e-01 -1.2860708355560000e+00 6.8754098445759997e+00
112 2.2543299252020002e+00 5.6321034875320004e+00 -1.7425681253920000e+00
113 1.6538706680349999e+00 2.0777788096520000e+00 4.4182283662749997e+00
114 -2.1230957355280000e+00 2.0511092182179999e-01 -2.5342469220760000e+00
115 3.0652435907219999e+00 4.5128713226779998e-02 -9.9165612291229999e-01
116 9.7399541526399993e+00 -5.4057819289950002e+00 9.9236514461530001e-01
117 -4.0519543107110003e+00 -2.4412392928909998e+00 5.8113408603280003e+00
118 1.9906798135820001e+00 7.6415217642849997e+00 -1.9223130210340000e+00
119 -4.6605352648700000e+00 -5.0630565564469998e-01 -5.1908444867580004e+00
120 -5.0127054476780000e+00 -1.8070952500670001e-01 -4.2158614606470000e+00
121 2.7900335815939998e+00 1.6913318448820001e+00 1.5607950605409999e+00
122 2.9833021457080000e+00 2.7264211821359998e+00 -2.9610147359080002e-01
123 -4.8523060353660004e+00 -3.7476721966210000e+00 -1.7031266928980000e+00
124 4.1461212695110001e+00 2.4512607108880000e+00 1.8803154402419999e+00
125 3.5543377441580000e+00 -5.5089118403180004e+00 2.5337763098940003e-01
126 -6.0689868449129998e+00 8.5701911797460006e+00 -3.8247009037280000e+00
127 2.0258675382760000e-01 -1.1688678818080001e+00 7.3095408968459996e-01
128 4.2553671944070004e+00 7.6066607844550003e+00 1.1896833766520001e+00
129 6.9202627462370003e+00 -3.5562240805349998e-01 -1.2993871076779999e+00
130 4.7147379508100001e-01 -2.0075896211469999e+00 -3.5792045301690001e+00
131 -2.7041187404849998e+00 7.5773756515489996e+00 3.1351387265840001e+00
132 3.2784112723260002e+00 3.3272453240480000e+00 -3.1324764436150003e-02
133 -8.3847632630939994e+00 -3.2380684346169999e+00 4.9030164567850001e+00
134 -8.7784024050340008e+00 -1.3440615599010000e-01 7.2467550632660005e-01
135 3.1080901861210002e+00 2.8561409176530002e+00 6.6155544208080004e+00
136 -3.9750511866889999e+00 4.9349776614690004e+00 -3.3733117731850002e+00
137 -7.7737699924860004e-01 -1.2513993354670001e+00 2.7386404303059999e+00
138 -9.2005335428940000e+00 3.8417334083690000e+00 3.8030774015010000e+00
139 1.6016597220719999e+00 8.9315429650919997e-01 4.5560907999720002e-01
140 1.8725795395839999e+00 8.6288800464320004e-01 7.2940164084369996e-01
141 -3.3607158915230002e+00 -1.5761091631089999e-01 -3.1436237739139998e+00
142 4.2303292531830001e+00 -2.1211977552160000e+00 -2.5200407730640001e-01
143 -3.4626355482919999e+00 -3.5749274741870001e+00 1.9105669930330000e+00
144 -4.5337223371449999e+00 -8.7089209271590001e-02 3.8243589395759998e+00
145 8.6637835342939997e+00 3.7188240583469999e-02 -5.4828135196360002e+00
146 5.8603798038240003e+00 -1.6102818255539999e+00 5.2189892761649999e+00
147 5.5942599484110000e-01 3.8670748407510003e-01 -8.0963047235710004e+00
148 -1.3383035696680000e-02 -1.0119364612420001e+00 4.6868451768610004e+00
149 4.0725821552579999e+00 -1.9933957528199999e+00 -1.8159004691989999e+00
150 -2.4275771099290000e+00 2.5403528179019998e+00 1.8852640330120001e+00
151 -2.8127416994279999e+00 -2.8790302809999999e+00 1.2599711466420001e+00
152 -3.3286582951149999e+00 -1.8958036084330001e+00 4.4556310170569997e+00
153 -9.4414185812269995e+00 1.4742932705270000e+00 -3.5292021717059998e+00
154 -5.5999086028439997e+00 -7.1419244733039999e-01 3.0143064890429998e+00
155 7.4880719297259999e+00 -5.4800941283559998e+00 1.2385990119950001e+00
156 5.5100203161900003e+00 -2.0061364524209999e+00 7.3795489666679996e+00
157 -2.1115336069869999e+00 2.9453258273029999e+00 -4.3619735272679998e+00
158 6.7386059996740002e+00 -5.7787672008970004e-01 -3.7508746610979999e+00
159 -6.1030636387519999e-01 -2.0457099564440000e+00 7.5554153602609997e+00
160 2.0967773142980000e+00 7.7713400663050001e+00 3.9058809613490002e+00
161 2.9466050242930000e+00 -2.0764929664420002e+00 4.0407343049769997e+00
162 4.4113796905609997e+00 -3.4334088010960001e-01 -2.7960563937749998e+00
163 7.1935846925640001e-01 2.6798763073220000e+00 -1.1483857268380000e+00
164 3.2188582286280001e+00 -6.5785212457880000e+00 -7.0240944799319998e+00
165 -2.3968121574310000e+00 -1.6059889705760000e+00 9.5242239313219998e-02
166 -3.8962315704249999e+00 -2.3606602592760000e+00 4.2403900066569999e+00
167 2.2860873487830000e+00 -4.1702193401300001e+00 -1.7490908931460001e+00
168 -8.9124451035300001e-01 3.1487630796669999e+00 -1.7076096716889999e-01
169 3.6571663466539999e+00 -8.5766536669790003e+00 2.7328640065220000e+00
170 -9.7313082302490006e+00 2.7797128988980000e+00 3.2277963093010000e+00
171 -6.2720508546450002e+00 2.1892617541330002e+00 -6.5935179924530001e+00
172 -1.2737923618289999e+00 2.6381360387430002e+00 6.0042086335139997e+00
173 2.9479301091760002e+00 -3.5411428438990000e-01 -5.0996659697729996e+00
174 -2.3527319319419999e+00 4.3550017566210002e+00 -2.9517369351829997e-01
175 7.4000898680430005e-01 -8.4218660989880001e-01 -1.1844385492689999e+00
176 -3.4986153718090002e-01 -9.6272894319639999e+00 -2.0161659964249998e+00
177 9.5962464324359997e-01 -6.6176620909319999e+00 3.4328620150660001e+00
178 -1.2473304171910000e+00 1.9544904487720001e+00 -1.3906349897660000e+00
179 -6.3431468792520000e+00 -1.4427160221369999e+00 -1.8802840884380001e+00
180 -2.7564632812659999e+00 -6.7804633721230001e+00 -2.1264012629000000e+00
181 -1.6450719669089999e+00 7.8441196347289999e-01 -3.7091305775640002e+00
182 8.6932680898369998e+00 5.9417719411269996e+00 3.4203030869239998e-01
183 1.0762401749680000e+00 2.3229518146569998e+00 -4.7141676733439999e+00
184 -8.7311220862500001e+00 -5.7469523552680002e+00 -2.8535949285800002e+00
185 6.5163486595569997e-01 -8.7417248442010003e+00 -1.3411423505639999e-01
186 -1.2265428101130000e+00 -4.2109050204459999e+00 -7.2956126886080002e+00
187 -2.1336185417950002e+00 -2.3978867600950000e+00 -1.8609873202560001e+00
188 2.7771002349690002e+00 -3.5901440547550001e+00 2.1956029122189999e+00
189 -5.3160643473890001e+00 8.3612218900829998e+00 2.7292427567869999e+00
190 -6.8063693985190001e+00 -4.9751858534709997e-01 -3.3854524011890001e+00
191 1.5483621163540000e+00 4.5340317972999999e+00 7.2819589571019999e-02
192 1.8503804067059999e+00 -4.3689217006929998e-01 -7.0183395914269999e+00
