LAMMPS data file extracted from NVT dump, timestep 1340000, units metal

192 atoms
2 atom types

0.0000000000000000e+00 1.6195563468200000e+01 xlo xhi
0.0000000000000000e+00 1.6195563468200000e+01 ylo yhi
0.0000000000000000e+00 1.6195563468200000e+01 zlo zhi

Masses

1 12.00000000
2 16.00000000

Atoms # atomic

1 1 1.2369430480840000e+01 1.5807017124630001e+01 1.0047710049330000e+01
2 1 1.5258004955900001e+01 6.0660376490859997e+00 6.9866710202810003e+00
3 1 9.6268686433430002e+00 5.5934779722409997e+00 4.8517595994380001e+00
4 1 1.3957096959090000e+01 4.8179984781920000e+00 2.7182566720470001e+00
5 1 1.7380376979550001e+00 1.0395148118360000e+01 1.0846420926280000e+01
6 1 2.9041625335719998e+00 1.3699524069140001e-01 5.1618098852929997e+00
7 1 4.5188610617549996e+00 1.3393940766949999e+01 7.9630049093719997e+00
8 1 1.0820067347489999e+01 1.2608589995939999e+01 8.0461563230010000e+00
9 1 9.4490569531599995e+00 1.2406258536660000e+00 4.5475664110159997e+00
10 1 3.6380370558549999e+00 2.2781672428720001e+00 1.2812230517290001e+01
11 1 4.9680632398339997e+00 6.2261082494810003e+00 5.0083777868609998e+00
12 1 1.4372614845810000e+01 1.4111132429100000e+01 5.7490715295490000e+00
13 1 7.1604488340800003e+00 5.1651294915320003e+00 8.7717432007330007e+00
14 1 7.2357740625800000e+00 1.5729643290510000e+00 1.3149659361019999e+01
15 1 1.5370505972020000e+01 8.8608687688660002e+00 6.9157733915630004e-01
16 1 3.8289571381890002e+00 6.9331659782130002e+00 7.3681222122519996e-01
17 1 4.2023462801380003e+00 1.5369257143030000e+01 1.5107500603809999e+01
18 1 1.1149970002840000e+01 6.9372551941560001e+00 1.3478620627040000e+01
19 1 1.2121492926920000e+01 8.5746849285660005e+00 7.0222836046859998e+00
20 1 2.8755490952390002e+00 7.8385622378709998e+00 8.0671049768290004e+00
21 1 5.2210464871519999e+00 9.6500550900190003e+00 2.0288239325510000e+00
22 1 1.1851602326309999e+01 1.8939938230800000e+00 3.0030317717069999e-01
23 1 6.1248186348719997e+00 1.2747002523169999e+00 7.4670712991729999e+00
24 1 3.2897091428919998e+00 4.1440761603549996e+00 1.5247437352160000e+01
25 1 6.8484407804240002e+00 1.0299272223670000e+01 1.4480309665240000e+01
26 1 6.8958203175790000e+00 9.2941973771969995e+00 5.6623674360939997e+00
27 1 7.0546329874660003e+00 5.7427024960490003e-01 1.2820627031109999e+00
28 1 8.8988729418190005e+00 1.3328723636810000e+01 3.3573986377429998e-01
29 1 1.0445852175440001e+01 1.5952088305160000e+01 1.3570415997130000e+01
30 1 1.3583447320099999e+01 1.0123577679760000e+01 1.0204482173790000e+01
31 1 1.5075016145210000e+01 7.7008311436980001e+00 1.1178393957370000e+01
32 1 1.3159815075659999e+01 3.4425332622789999e+00 6.6671376366589996e+00
33 1 5.7433459797150004e+00 3.4079078660579998e+00 3.5505272983989999e+00
34 1 4.6970549863919997e+00 7.5565545223220001e+00 1.1641894056780000e+01
35 1 1.5100500706009999e+01 1.5823069718390000e+01 1.3232485486530001e+01
36 1 2.2464832153569998e+00 8.3097871861249999e+00 1.4491742683220000e+01
37 1 1.4801970689050000e+01 1.1312960756580001e+01 1.3394110503280000e+01
38 1 9.9214963634750006e+00 1.1330687431230000e+01 1.2004519237780000e+01
39 1 2.2348690002649998e+00 1.4176696694629999e+01 1.2359110689470000e+01
40 1 1.5308638927640001e+01 1.4013497732650000e+01 9.9634289393680007e+00
41 1 1.0523960912820000e+01 3.8179420237340000e+00 9.6015442446419996e+00
42 1 1.5028336782040000e+01 4.6441060816690003e+00 1.5448855794869999e+01
43 1 7.7370362661350001e+00 9.4419485290459999e+00 9.1551828632089993e+00
44 1 7.2937634436929999e+00 1.3720268855080000e+01 5.9056502331849998e+00
45 1 1.1109619152530000e+01 1.4251330857450000e+01 3.4021922376189999e+00
46 1 1.2529854618430001e+00 8.6357845368530004e+00 4.2992828607559996e+00
47 1 5.3827695573460002e+00 1.4044668769459999e+01 1.1366536405100000e+01
48 1 1.3754160306150000e+01 4.0159994059660002e+00 1.1111796856220000e+01
49 1 1.0283573711020000e+00 4.7608321392450001e+00 1.0263838418380001e+01
50 1 1.3847026087040000e+00 1.1368515865130000e+01 6.8114725271880001e+00
51 1 2.0445623072200001e+00 1.2358260017170000e+01 1.5694905049899999e+01
52 1 9.9446952912339999e+00 1.1193907018930000e+01 4.6518851097670000e+00
53 1 2.1955580795820002e+00 3.4100598399959998e+00 6.4189173780640001e+00
54 1 1.2294373407360000e+01 1.1550237690330000e+01 1.6245253409299998e+01
55 1 6.7312102665450002e+00 5.4075069429839999e+00 1.3339563473069999e+01
56 1 1.0689070961230001e+00 1.1491661185390001e+00 9.4864878133169999e+00
57 1 1.1799008526500000e+01 8.1294880623149997e+00 2.8416271414329999e+00
58 1 1.6127470662300001e+00 3.4066139967210001e+00 2.5845295360670000e+00
59 1 1.5309202461040000e+01 1.3840286496619999e+01 1.8529945205800000e+00
60 1 8.6313842350719998e+00 1.5433172292040000e+01 9.8367539400819997e+00
61 1 6.5570710715570002e-01 8.1540576063570003e-01 8.9443098412109998e-02
62 1 3.6532083414350001e+00 1.3506602822090001e+01 3.1407926706820000e+00
63 1 8.6712395059500000e+00 9.7052518799430008e+00 9.6015566362250004e-01
64 1 8.0892540708580007e+00 5.6871504658710004e+00 1.8738096145830001e+00
65 2 1.1585934416560001e+01 1.5172692542420000e+01 1.0673076479980001e+01
66 2 1.3186967984260001e+01 3.0242310325830002e-01 9.5272467173360003e+00
67 2 1.9850948131280000e-01 5.9277111684779999e+00 6.6850762026639998e+00
68 2 1.4114007273089999e+01 6.2517357997190004e+00 7.2814027216869999e+00
69 2 9.5352341094380009e+00 6.3694690186559999e+00 5.7533209896630000e+00
70 2 9.7912527506909992e+00 4.8786662603400002e+00 3.9520319385599998e+00
71 2 1.4353265885290000e+01 3.7213294066330000e+00 2.5131120804070002e+00
72 2 1.3492085046480000e+01 5.8784578454899998e+00 3.0087736994020000e+00
73 2 9.9005283750899997e-01 1.1107972847870000e+01 1.0294954836160001e+01
74 2 2.5179504090229998e+00 9.7417074457150008e+00 1.1382158006799999e+01
75 2 1.9460538801259999e+00 1.5794318368360001e+01 5.5295588975300003e+00
76 2 3.9290323152290001e+00 6.2493348095199996e-01 4.8511913549120003e+00
77 2 3.9438769749459999e+00 1.4376683472060000e+01 7.7041166407570003e+00
78 2 5.1444677730299997e+00 1.2437638172430001e+01 8.1987325844850005e+00
79 2 1.0682841212480000e+01 1.1471624101470001e+01 8.2572572664939994e+00
80 2 1.0777542206820000e+01 1.3747588004490000e+01 7.8376593049640002e+00
81 2 9.0879291978550008e+00 4.3491260340450000e-01 3.8098372109869998e+00
82 2 9.7880336925239995e+00 2.1201904188860001e+00 5.2077697328290000e+00
83 2 4.0157378248170001e+00 1.6393820130710000e+00 1.3721313709420000e+01
84 2 3.2616110274639998e+00 2.7850001309360000e+00 1.1819531338259999e+01
85 2 4.2513181119850003e+00 6.3271872300920000e+00 4.0853893776580001e+00
86 2 5.7142826929210004e+00 6.2993462738570001e+00 5.9031799835610004e+00
87 2 1.5063665349410000e+01 1.5008088943930000e+01 5.4165665379240000e+00
88 2 1.3844068510370001e+01 1.3138653191040000e+01 6.0422712922019999e+00
89 2 8.1554845200260004e+00 4.8618744129120000e+00 8.2030969696330001e+00
90 2 6.1494172316500002e+00 5.4965787347889998e+00 9.3059027483989993e+00
91 2 6.9240809768400000e+00 2.1971182373190001e+00 1.2178459729549999e+01
92 2 7.5689823584760001e+00 9.1082770579469996e-01 1.4062131210030000e+01
93 2 1.5763973602560000e+01 8.1401593620180002e+00 1.5481087307420001e+00
94 2 1.5050609726439999e+01 9.5958623623529995e+00 1.6034109428360001e+01
95 2 4.8078240131490002e+00 6.5197754614340004e+00 3.2052790104610002e-01
96 2 2.7977603961850002e+00 7.3402396813089998e+00 1.2195851685350001e+00
97 2 4.4980830181720002e+00 1.4713752622700000e+01 1.4180928897139999e+01
98 2 4.0785485238719996e+00 1.5978058597310000e+01 1.6095069136140001e+01
99 2 1.1843870783360000e+01 6.0599686818430003e+00 1.3078094749210001e+01
100 2 1.0475917427030000e+01 7.8360296930400004e+00 1.3881971087609999e+01
101 2 1.1550956352640000e+01 8.0369453253240000e+00 7.9116443644520000e+00
102 2 1.2659718188939999e+01 9.1469938709070000e+00 6.1396371222169996e+00
103 2 3.1898346434559999e+00 7.8099451205859998e+00 6.9415485109699997e+00
104 2 2.5370492846529999e+00 7.8764844851609999e+00 9.1815364136179998e+00
105 2 4.4837134113049997e+00 1.0456027882280001e+01 1.5963967586809999e+00
106 2 5.9332340865519999e+00 8.8674514801110007e+00 2.5551937404500000e+00
107 2 1.2019904065750000e+01 9.8137788920350000e-01 9.9650253801620003e-01
108 2 1.1710430483800000e+01 2.8043224240989999e+00 1.5812681036940001e+01
109 2 5.0929297505809998e+00 1.8249320093900001e+00 7.6390954014880004e+00
110 2 7.1819367153630003e+00 8.1012305809439999e-01 7.2844165738399997e+00
111 2 2.5335298598520000e+00 4.6633638543569997e+00 1.4524605367340000e+01
112 2 4.0622600004800002e+00 3.5489990535059999e+00 1.5946138447210000e+01
113 2 6.4647826861060000e+00 1.1383673367020000e+01 1.4227981456300000e+01
114 2 7.1961618972660002e+00 9.1973549978779996e+00 1.4626156701439999e+01
115 2 5.7212686622940003e+00 9.3567958292890001e+00 5.8370576577530002e+00
116 2 8.0414632765759997e+00 9.2426173666530005e+00 5.5729651582450002e+00
117 2 7.8620390010929997e+00 1.1565293991829999e+00 6.0575171658589999e-01
118 2 6.2943691964030002e+00 5.2831337886250003e-02 2.0459898896970001e+00
119 2 9.8612141236759996e+00 1.2970385694459999e+01 1.6002216657510001e+01
120 2 7.9340161596609997e+00 1.3825133916630000e+01 8.0148346936860004e-01
121 2 9.6764240885280000e+00 1.5046312796680001e+01 1.3575365714109999e+01
122 2 1.1250246389759999e+01 6.1425877270429996e-01 1.3670513781530000e+01
123 2 1.3305934984169999e+01 1.0431426624669999e+01 1.1311441281890000e+01
124 2 1.3815307407770000e+01 9.8631753822389996e+00 9.0518200207760007e+00
125 2 1.4342410837359999e+01 7.6497933688690001e+00 1.2088317210900000e+01
126 2 1.5851839091990000e+01 7.8598865178370003e+00 1.0305557008239999e+01
127 2 1.3005940353180000e+01 3.1235671578790001e+00 5.5352306465460002e+00
128 2 1.3282500821319999e+01 3.5787512966630000e+00 7.8363647250690001e+00
129 2 4.9279815883350002e+00 3.7599988768460002e+00 2.7341419334300001e+00
130 2 6.5937735374719999e+00 3.0872625365320001e+00 4.3115888290640001e+00
131 2 5.4812726455750003e+00 8.3867616326000007e+00 1.1452287624129999e+01
132 2 3.9389841241850001e+00 6.7002667770570001e+00 1.1953111373320001e+01
133 2 1.4789381142870001e+01 1.5181609703770000e+01 1.4202970849520000e+01
134 2 1.5381233388660000e+01 2.5840408976290002e-01 1.2259348260539999e+01
135 2 3.1439165644650000e+00 9.0025236615759994e+00 1.4782775867960000e+01
136 2 1.4057005321489999e+00 7.5465033496110001e+00 1.4225360159330000e+01
137 2 1.5515762028739999e+01 1.0384932894900000e+01 1.3240179249310000e+01
138 2 1.4135219620579999e+01 1.2186781581769999e+01 1.3691643395230001e+01
139 2 1.0075125942860000e+01 1.2377544176190000e+01 1.2487405023799999e+01
140 2 9.7551849962140000e+00 1.0224392764419999e+01 1.1660762387629999e+01
141 2 2.7116816416490002e+00 1.3128543431500001e+01 1.2106129857590000e+01
142 2 1.6435856719930000e+00 1.5122365485250000e+01 1.2631082064319999e+01
143 2 1.5611455221200000e+01 1.4386392539230000e+01 8.9195439243209993e+00
144 2 1.5027333632280000e+01 1.3636321618809999e+01 1.1033902848569999e+01
145 2 1.0511127054739999e+01 3.0168713170819998e+00 8.7510105451060003e+00
146 2 1.0431263883550001e+01 4.5152130870180001e+00 1.0522507178700000e+01
147 2 1.4517856258040000e+01 5.5804132973950002e+00 1.5947713160810000e+01
148 2 1.5550594528460000e+01 3.6764675592020000e+00 1.5005204456950000e+01
149 2 7.7645286313359998e+00 1.0271339418229999e+01 8.3179196766629993e+00
150 2 7.8424896259599999e+00 8.6371267697030003e+00 1.0024668514900000e+01
151 2 8.0270431250269993e+00 1.4112687856390000e+01 6.7485501068340001e+00
152 2 6.5774168253770000e+00 1.3360106274770001e+01 5.0724673311819997e+00
153 2 1.1107189511070001e+01 1.4165815288039999e+01 4.5762091810359999e+00
154 2 1.1034468267319999e+01 1.4334302011300000e+01 2.1816337183490000e+00
155 2 2.1986207384699998e+00 9.0734105945309995e+00 3.7086744231269999e+00
156 2 2.8063844825049999e-01 8.1305389155970005e+00 4.8146865494049997e+00
157 2 5.7536937199149998e+00 1.2937066002390001e+01 1.1540778765600001e+01
158 2 5.0845353534989997e+00 1.5150130644240001e+01 1.1130673775540000e+01
159 2 1.3619276024130000e+01 3.1808749907250000e+00 1.1893085576210000e+01
160 2 1.3979218315280001e+01 4.8777761478050001e+00 1.0362288754450001e+01
161 2 8.2703290707620003e-01 4.8870598015690003e+00 1.1423840613039999e+01
162 2 1.2960063543089999e+00 4.5815306022679998e+00 9.1397363464179993e+00
163 2 2.5323595943860000e+00 1.1458901009970001e+01 6.9581568254750001e+00
164 2 2.2281144288650001e-01 1.1129697892610000e+01 6.6993189678800000e+00
165 2 1.9965217913500000e+00 1.3415306916380001e+01 1.5163641716020001e+01
166 2 2.1790238276679998e+00 1.1361027071320001e+01 1.0161417275360000e-01
167 2 9.7155448344839996e+00 1.1909577045300001e+01 5.5848206412900003e+00
168 2 1.0281520269510001e+01 1.0507335126430000e+01 3.7603817734699998e+00
169 2 1.6421462433180001e+00 2.4089340281279998e+00 6.7343680351400002e+00
170 2 2.8110273943830002e+00 4.3289331524060000e+00 6.0552010066050004e+00
171 2 1.2972267886619999e+01 1.2066054795019999e+01 8.4422851138690003e-01
172 2 1.1718735072699999e+01 1.1002305488979999e+01 1.5396941861280000e+01
173 2 7.5346150136930001e+00 5.8360444410519996e+00 1.2643457533539999e+01
174 2 5.9095281851739996e+00 5.0530022103840002e+00 1.4116969489890000e+01
175 2 1.6165053695659999e+01 1.1890340249750000e+00 9.1173217476719994e+00
176 2 2.1988663816690002e+00 1.0518192948400000e+00 9.8975845265439997e+00
177 2 1.2580625285300000e+01 8.6347871244859995e+00 2.1545351524480001e+00
178 2 1.0983079622949999e+01 7.6584901538779997e+00 3.5559788801310002e+00
179 2 1.7637559481939999e+00 2.5338765969699999e+00 3.3765827444120000e+00
180 2 1.5822619431820000e+00 4.4099604293089998e+00 1.9609390783530001e+00
181 2 1.4659879697579999e+01 1.4351934575300000e+01 2.6816684328020002e+00
182 2 1.5978992928849999e+01 1.3491758744180000e+01 9.5246072635210000e-01
183 2 8.1682828510360004e+00 1.4388814168500000e+01 1.0160877964270000e+01
184 2 9.0616916623789994e+00 2.4052247580770000e-01 9.4678061773800000e+00
185 2 1.2147087823920000e+00 1.1433037145670000e+00 1.5340870413759999e+01
186 2 1.4399399342260000e-01 4.9547318403290003e-01 1.1000880219219999e+00
187 2 4.2024521611839996e+00 1.2689525759720000e+01 3.8017940935880001e+00
188 2 3.1627080027900001e+00 1.4223044927700000e+01 2.3772132894959999e+00
189 2 7.9757202287120004e+00 1.0631107725950001e+01 1.1525539014630000e+00
190 2 9.4133485761689997e+00 8.8359364712580000e+00 7.3538176255529997e-01
191 2 8.7546394075380007e+00 5.2100352469190003e+00 1.0497626248630001e+00
192 2 7.4366826409300000e+00 6.1689444726660003e+00 2.7296212962249999e+00

Velocities

1 1.8980781940649999e-01 6.0476065398200003e+00 2.5051270526449998e+00
2 2.0418399463290000e+00 -1.7974986658609999e+00 -3.8120483266870000e+00
3 4.4235981854719997e+00 -8.5551592677230004e-01 -5.6739350043180004e+00
4 7.5277559438999999e+00 -3.3267688197509999e+00 -4.4036491658350002e-01
5 -3.5239370841010000e+00 4.9392367343409999e-01 6.1564684494349997e+00
6 -2.9565949895269998e+00 -7.2693185092399997e+00 -1.4889449364420000e+00
7 2.0264752719130000e-01 3.8764721670900002e+00 -1.7918126545810000e+00
8 -4.1798824373420000e+00 -1.3428676453430000e+00 -2.8984324243780002e-01
9 -2.7989703070740002e+00 4.5979748801189997e+00 3.5271890026169999e+00
10 6.3963092515710001e+00 2.3398523525780002e+00 2.1542436141380001e+00
11 -2.7578902923370001e+00 -3.1226398710819998e+00 7.0602970991059999e-01
12 -4.4832862882789998e-01 -5.9915112653209999e+00 -1.4327851750350000e+00
13 6.7047787114239998e+00 -4.9963317287860001e+00 3.3752406284430001e+00
14 -1.5425321010660001e-01 -4.8320201461550001e+00 -2.0663993829730001e-01
15 2.5554945054589999e+00 8.1285482853449997e-02 -7.7969959958919999e-01
16 1.6405694775010000e+00 -1.2309545798720001e+00 5.0757798119370001e-01
17 2.1916591161999999e-01 8.8702937396189996e-01 2.2643428819820000e+00
18 -4.4124491607319998e+00 1.4050636882990000e+00 2.1103679662890000e+00
19 6.0136942369649997e+00 2.9782556392539998e+00 7.9181399177609997e+00
20 -6.6938163039529996e+00 4.0515767552130004e+00 3.7878384689569999e-01
21 4.2889536125610004e+00 -4.8802009314179999e+00 -1.1542547088619999e+01
22 -1.2866212073080000e+01 2.3962646712410001e+00 8.4009138786039994e-02
23 6.3422333712460004e+00 6.1149487801940001e+00 3.2039782678550002e+00
24 4.1692203337450001e-01 7.0796559974370004e+00 -1.2473618469940000e+00
25 -1.8642848703179999e+00 2.4606804548420000e+00 6.5417385588929999e+00
26 -2.0839560704130000e-01 4.8055417053719998e+00 -9.2492931331969999e+00
27 -2.3479426752979999e+00 2.6487332791379998e+00 -4.3132307422679999e+00
28 -4.0590378373210001e+00 -6.0859109869820003e+00 -2.0332524899950002e+00
29 4.5096162647959996e+00 -3.3850740620350002e+00 -1.9216288907979999e+00
30 -7.5545989449470001e+00 2.9726947506990000e+00 8.2826433923830001e-01
31 9.8023099050140006e-02 7.8217097473200003e-01 -1.0358546257820000e+01
32 -1.7881202668889999e+00 -4.0665263270869998e+00 5.1897799230909998e+00
33 4.6269362549880000e-01 -3.1332457123480001e-01 -5.5697647996999997e+00
34 1.0048670757289999e+01 1.2275777706280000e+01 2.2010403919189998e+00
35 4.1123306398760002e+00 -7.9409124471680004e+00 8.8919685920489999e-01
36 -5.0830396991019999e-01 -6.2113125532730002e+00 1.4052559224750001e+00
37 4.1842684778320000e-01 -1.8098228461220001e+00 6.5185214362490003e+00
38 -1.1636962558630000e+00 -2.7736969747379998e+00 -1.7619615506199999e+00
39 2.7765374813560002e+00 1.4570763926749999e-01 -1.6868095042469999e+00
40 -6.3065103178250004e+00 -4.7584186290380002e+00 7.2490829573640001e+00
41 -2.4695154039000000e+00 -1.4613829223100001e+00 3.0321416220140001e+00
42 2.3160190221670001e+00 -4.2005909031510003e+00 -1.5543572946440001e+00
43 -1.1722798025290000e+00 -3.2885587803220000e+00 7.5325846257499995e-01
44 -3.4183767981149998e-01 -4.8837288269329999e+00 8.0350784737129999e+00
45 6.4914068496779997e-01 -3.6531538257189999e+00 -2.5469678132459999e+00
46 5.0224529883529998e+00 1.0233370497470000e+01 3.2730007128350000e+00
47 6.6164374565329998e-01 5.0834959773639996e+00 8.1729886714300004e-01
48 8.3875887150939992e+00 6.4385358398010002e+00 -5.7643822764270003e-01
49 -6.2779218394270000e+00 2.9025231194969998e+00 -2.6563456606079998e+00
50 -2.8064799784550001e+00 7.3075298235670005e-01 -5.8687347707370003e+00
51 -3.1817468084709999e+00 -1.1171139969480000e+00 -1.2646591435420000e+01
52 -9.8238346648690000e-01 -1.3025404503950000e+01 3.9910849002040001e+00
53 -4.4594818834519998e+00 -2.9897139868250000e+00 2.0685471231540001e-01
54 5.0886440660470003e+00 -2.7264176039220001e+00 8.0084079234000001e+00
55 -1.3111245220609999e+00 -1.0458748597980000e+01 3.9444399631630001e+00
56 1.7908971212889999e+00 6.7853413613650000e+00 -8.2208471431410004e+00
57 4.4721947384510002e-01 -8.4706065417220000e-01 1.2960075787120001e-02
58 -4.4061199325080000e+00 8.7213129923120007e+00 6.8275393582410004e-01
59 -6.1478975392950002e+00 -2.6570948614090000e+00 -8.0893229480020001e-01
60 -5.7338330671250004e+00 1.0145463809540001e+01 -8.8124856546050001e+00
61 3.2080297288430000e+00 9.7223286699349991e+00 -9.4067510695650007e+00
62 -2.0432819837889999e+00 7.8559039437960001e+00 7.5259398038790000e+00
63 -2.4461848211550001e+00 5.6844957269509999e+00 -3.7040525959389998e+00
64 4.9481392561300002e+00 -1.3641937006639999e+00 2.8480095232189999e+00
65 -2.2775125062410000e+00 -2.4424954599389999e+00 1.0468489619690000e+00
66 1.4633390300669999e-01 3.2030497977980001e+00 6.8664047037609999e+00
67 6.3889380696300000e+00 4.6458507726320004e+00 1.8059206369430001e+00
68 -4.5238468396500000e+00 3.1064553963099999e+00 3.9221914416580002e+00
69 -3.1257499049009998e+00 2.7520978447440001e+00 2.6229710285299999e+00
70 4.1440530137070004e+00 3.9183964888029998e+00 -2.5951855559340000e+00
71 4.9589164761630000e+00 7.0749474497529996e-01 3.1817692710159999e+00
72 -4.1186018858719997e+00 -5.8539631253679998e+00 6.3761143809369996e+00
73 1.2117262503920001e+00 -5.0198280895709999e+00 2.6737496931820002e+00
74 -2.1008131913239998e+00 9.7314412045550007e+00 1.1153346958829999e+00
75 -3.9826151381249999e+00 -7.0135845645170003e-01 9.1751860477629998e-01
76 2.8768433483320002e+00 4.5786553431900003e+00 -4.1641503024350002e-01
77 9.3607343412120003e-01 -1.9599818574860000e+00 -4.8560986882719996e+00
78 -4.0230810690630001e+00 1.5520137264130001e+00 -3.2804920014840002e+00
79 2.3468533487530001e+00 1.3092183634729999e+00 -1.8346120665090000e+00
80 -3.8814763096139999e+00 1.2036570838090000e+01 -5.6149253721269998e+00
81 -1.1610952626550000e+01 -2.7537949673419999e+00 -1.3129631854529999e-01
82 2.3156095130390000e+00 3.4435134471639999e+00 -4.5760896988480004e+00
83 -4.8227066674309998e-01 -2.3725712096520000e+00 -4.0298513172910004e+00
84 -2.7048276379930001e+00 -8.8628780777999996e+00 -3.5621645405860001e+00
85 -5.1265115645170001e+00 1.3852710837050000e+00 -4.3308835526080003e+00
86 1.3833885473180001e+01 1.0069236164290001e+00 7.7201225368559996e+00
87 -1.5684285282410000e+00 9.4191473419189997e-01 -1.2712047079090001e+00
88 4.6317632308499999e+00 4.8985102417390003e+00 -6.1478934410730002e+00
89 2.9589908405320000e+00 3.3214033382410002e+00 -5.9939110472290000e+00
90 1.7332396150589999e+00 -2.9888643246450002e+00 -1.0515817239110000e+01
91 5.4677189733490001e+00 -5.5066948064970003e+00 1.5868758104620000e+00
92 -1.3484869992449999e+00 -2.6222605887689998e-01 -4.6665933443979997e+00
93 -3.1547722514180001e+00 -5.1022833016689999e+00 2.8947222242460002e-01
94 -3.7323793644880001e+00 -5.9188244056540000e+00 1.3570535429780000e+00
95 4.2232760993860001e+00 2.0207686302790000e+00 -3.5837232152069998e-01
96 1.0996582531210000e+00 -1.2419675727940001e+00 1.3007525943680001e+00
97 -2.4130641491620000e+00 -4.4749531129129999e-01 -3.7774421675990002e+00
98 8.8566556413789996e+00 -1.3574376578709999e+00 2.4817843985420001e+00
99 -3.6278176993700000e+00 2.4195489714249998e+00 -4.8254637530810002e-01
100 -3.4408479703029999e+00 -3.2860150982579999e+00 -5.6091547134399997e+00
101 5.7684183248289997e+00 5.6603132049009997e+00 1.6892324434090000e+00
102 5.2757964941409998e+00 1.7896813963400000e+00 4.4632381472839997e+00
103 -5.8963834355150002e+00 -5.4824696208920001e+00 -2.6526550786850001e-01
104 4.7460414286510000e+00 1.8601460329960000e+00 2.2719655242400001e+00
105 1.3348855104820001e+00 6.8375082777650000e+00 3.6656729554799998e+00
106 3.1243081223139999e+00 -2.2653379579849999e+00 3.0892337283960001e+00
107 1.7568324105980000e+00 9.1831828653400005e-01 -2.1135402898820002e+00
108 1.2679539078060000e+00 -1.4241440675960000e+00 -3.5034770950110001e+00
109 4.0966878129010000e+00 2.0075963971210000e+00 1.1270701522419999e+00
110 -1.1562030870550000e-01 -5.0242134990730003e+00 6.2135878711140002e-01
111 2.9934400585260001e+00 -1.4294914375240000e+00 3.7846042450740001e+00
112 -2.7479990095679998e+00 4.6720218896589999e-01 1.2214129677950001e+00
113 -2.9439704018609998e+00 -7.7878068440180002e+00 3.9430658050290002e+00
114 -4.1288361621379999e-01 -1.1320217634020000e+00 2.0264754056440002e+00
115 4.1380296212749998e+00 3.2303109879809999e+00 -2.8016513391040001e+00
116 -2.4302262093359999e+00 -1.4979628028930000e-01 4.5346696541669997e+00
117 6.3128348512920001e+00 7.8851551646319995e-01 9.5731762333290007e+00
118 -7.7300015836949996e+00 -3.4725688405709998e+00 4.4920321068520002e+00
119 4.7576074729620004e+00 -1.5208797534039999e+00 -1.9632463189920000e+00
120 1.2415628495450000e-01 -6.8591302767499995e-01 3.1306582353980001e+00
121 6.2843460858869999e+00 7.2518313005339996e+00 -9.0724158020359997e+00
122 -2.5709702734439999e+00 4.8114212303609998e+00 -3.1635821246779998e+00
123 -3.5623153061800000e-01 1.9193895218179999e+00 -5.4166620761789996e+00
124 -1.1941587428689999e+00 3.3809907345769998e+00 -4.9598445178369999e-01
125 -1.5346177131790001e-01 -3.0221753856050002e+00 4.7824773514569996e+00
126 4.4810879021950001e+00 -5.3477762953479999e+00 -5.5966801126650001e+00
127 3.7853521276680002e+00 -5.4910588823340001e-01 3.8380087329200001e+00
128 6.3465397976079996e-01 -2.1773308115240000e+00 -4.8590474259090000e+00
129 5.3960766172890002e+00 -2.9144349770319999e-01 2.2442773171910000e+00
130 -8.3435896984669995e+00 9.8251541362189998e-01 -2.8724197672570000e+00
131 1.3027649085020001e+00 -2.8386493022810000e+00 2.0844838282970000e+00
132 6.5768465532730003e-01 9.8001485656200005e-01 1.7546570009869999e+00
133 -2.7254094140410001e+00 -4.1479195701800000e+00 -6.6181681162899997e-01
134 4.3979962044990000e+00 -2.3902516402190002e+00 -8.3041516645400004e-01
135 -8.6254668340289999e+00 -2.7187915430879999e+00 -3.7378261234500001e+00
136 8.4125449768340008e+00 1.2725047405900001e+00 1.7666005137180001e+00
137 3.2010362308459999e+00 -8.5826772718769995e+00 -9.9923961384390003e-01
138 3.6101218504040000e+00 -8.1493516018080001e+00 -2.4142289556300001e-01
139 9.5153246002120007e+00 -1.8208073885050000e+00 2.2138162586619998e+00
140 -4.6088080770620001e+00 1.3479818729530000e+00 3.3417114523370001e-01
141 2.1051417685620000e+00 -1.4952449655950000e+00 5.2731365569930000e-01
142 4.4950357115499999e+00 -2.0490783261579999e-02 5.9010339177419997e+00
143 -4.9403339798530004e+00 -1.3380382069070000e+00 6.1357233881579996e+00
144 7.6673311254819998e-01 1.1366033991700000e+00 -5.3333376052540000e+00
145 -2.5434131255680001e+00 4.2503112062020003e+00 -7.3744959402270005e-01
146 -6.9003253262599999e+00 -7.4669895524000003e+00 -1.0339296210440001e+00
147 -6.6301274466399995e-01 4.1698344106510001e+00 -4.1729494066089998e+00
148 7.2886364814849998e+00 1.3784400726470000e-01 -1.4667085937269999e+00
149 -2.0013106504459999e+00 -1.0106189266690000e+00 -4.0426978438469998e+00
150 4.2610393115529999e-01 4.2081161388510004e+00 4.6275607837810000e+00
151 2.5857885001760000e-01 -6.6967037639329998e+00 3.1635589973889999e-01
152 -1.3325241553580001e+00 2.0755044786619998e+00 6.8655274150469996e+00
153 -1.7624362503410000e+00 4.8980932431150004e+00 3.0851873917920001e+00
154 2.3321175438389998e+00 -1.4052521842410000e+00 -1.7849790613800001e+00
155 -5.0106931647110002e+00 5.9795558444300001e-01 1.6635774323210000e+00
156 -6.9620984153999999e-01 1.5920337720040001e-01 -5.5407063572560000e+00
157 -1.0407830260969999e+00 2.8698861030759999e+00 3.5414426703839998e+00
158 -5.3373620215960003e+00 1.8292714277960000e+00 1.9537102125840000e+00
159 -1.9666768924160001e+00 -7.0143191001320000e+00 -1.0247629794050001e+01
160 5.9427657319550002e+00 2.2722911020750001e+00 -6.1539063795860001e+00
161 4.1369652391539997e+00 -5.7780878393760000e+00 -3.1075572593800000e+00
162 -8.8647560407920004e-02 4.9581489071230003e+00 5.4091844986490001e+00
163 -7.4828489970089995e-01 5.0818612180700002e+00 -1.0932433489669999e+00
164 -1.1359330523760001e+01 1.7034328806110000e+00 6.8639952906790000e+00
165 9.3201948622819997e-01 2.9432886694430000e+00 4.0470827485339997e+00
166 -8.0500029542680007e+00 -3.5170484438390002e+00 6.7312829234509997e-01
167 -1.6722716284760000e+00 1.5826696285860000e+00 -2.1927166149950000e-01
168 3.9119819055870000e+00 1.8901789818290000e+00 6.8048890283489998e+00
169 -9.5464494855020003e+00 -7.4516693300990000e-01 5.7077299120059999e-01
170 3.6589424812959997e-01 1.2635658558339999e+00 7.7101151793650002e+00
171 3.6919770816250002e+00 6.5493581000040004e+00 -3.7082245794439999e+00
172 -9.9818450537810000e-01 3.1028381498509998e+00 5.2522186793849999e+00
173 4.9742776453540003e+00 -2.9196422542009999e+00 4.5380927378100004e+00
174 6.1816109909670001e+00 -4.9902154336709996e+00 -1.5324161717770000e+00
175 -1.5346292086819999e+00 4.1064932184830001e+00 1.4927425189940000e+00
176 1.4647944503720001e+00 1.3105045953000001e+00 2.4647546662040001e+00
177 1.6846352311299999e+00 1.5552992472700000e+00 -7.4135490138850004e+00
178 8.3561620024090004e+00 -3.8897739688059998e+00 -9.1034852789960006e+00
179 5.9380976735409998e+00 -2.1745883287740000e+00 2.6403422323070003e-01
180 -6.7023869108029999e+00 1.7797315501240001e+00 3.9111645791549998e+00
181 -3.3294339888120001e+00 -5.5224793398549998e+00 2.3589693681169999e-01
182 -7.9138965935660002e+00 -2.6723120790479999e+00 -1.7481306988209999e+00
183 -3.5464647812579999e+00 2.3642124780000001e-01 7.7670380113530002e-01
184 -4.1751913016550004e+00 3.9656053774219999e+00 -2.4385522646640001e+00
185 -6.5422968655330003e+00 -6.6258084879999997e+00 -8.5577439254450005e-01
186 -9.1325045942549998e+00 -7.0744200666750001e-01 -5.2289824131310003e-01
187 -2.8282298667650001e+00 -9.9573134017479994e+00 3.6793502974079999e+00
188 6.3821083638009997e+00 -6.7973708907260004e+00 1.4554611368220001e+00
189 4.6559175731159996e+00 6.6019264248949998e+00 4.7775055397889998e+00
190 9.7851939625709997e-02 4.5451405453460003e+00 -6.2584997177790003e-01
191 -2.4179528504399999e+00 6.7291689807679997e+00 -2.0780471576330002e+00
192 -4.1678455469540001e+00 4.2790827386730002e-01 -1.6868075803910001e+00
