LAMMPS data file extracted from NVT dump, timestep 1140000, units metal

192 atoms
2 atom types

0.0000000000000000e+00 1.6195563468200000e+01 xlo xhi
0.0000000000000000e+00 1.6195563468200000e+01 ylo yhi
0.0000000000000000e+00 1.6195563468200000e+01 zlo zhi

Masses

1 12.00000000
2 16.00000000

Atoms # atomic

1 1 7.1992246004669997e+00 6.3285383301470004e+00 1.4690638917090000e+01
2 1 1.1661446412659999e+00 1.0371142934780000e+01 2.2603584297640000e+00
3 1 9.8192330758430000e+00 1.9511357617459999e+00 4.6426919250519996e+00
4 1 1.0977188849350000e+01 5.9608478600670001e+00 4.6107174797789998e+00
5 1 4.4042102881840002e+00 8.1680642015129994e+00 3.8320830083390001e+00
6 1 1.8635136006080000e+00 5.1961162849470002e+00 5.4793290268180002e+00
7 1 5.7022129504799999e+00 1.5813591011280000e+01 1.1753583644079999e+00
8 1 9.7253386339539993e+00 1.2981512226040000e+01 6.5541366928720004e+00
9 1 1.8338989404749999e+00 1.5635262463000000e+01 1.3257089196710000e+01
10 1 8.8736936145600005e+00 9.7925446047399998e+00 9.6204755292420003e+00
11 1 1.6037079733430001e+01 1.2549622302940000e+00 7.2663029808830002e+00
12 1 7.8526699784279996e+00 9.2041137244980007e+00 5.8894442133089999e+00
13 1 1.2000353024460000e-01 9.3577304740499994e+00 1.4685201727820001e+01
14 1 6.9638347074039997e+00 9.4430616532320002e+00 5.8975609074210000e-01
15 1 9.1983321163260001e+00 1.0791851988950000e+01 1.3168206358360001e+01
16 1 5.2374419545509996e+00 1.4326641538170000e+01 1.4612413083100000e+01
17 1 2.1415441024740001e+00 5.6843555294249999e+00 1.2481075407800001e+01
18 1 1.3812502379620000e+01 1.5225576553630001e+01 4.6948421613119997e+00
19 1 4.6913486578550003e+00 1.2511812506900000e+01 2.5716604416219999e+00
20 1 1.0550840072800000e+01 1.5729466786720001e+00 1.3614816063470001e+00
21 1 5.6589872347389996e+00 1.4317690618409999e+01 7.5450576827419997e+00
22 1 4.9203808594960003e+00 4.6269004984470001e+00 9.0163867239889992e+00
23 1 1.2383094596450000e+01 1.0334767507700001e+01 1.7575184000799999e+00
24 1 4.8133903412550003e+00 3.0407611465379998e+00 1.4364663580940000e+01
25 1 9.5486346117720000e+00 5.4654232190379997e+00 7.9657940965530001e+00
26 1 6.3094046308429999e+00 3.6243427123270000e+00 1.5814202788489999e+00
27 1 1.2769318663420000e+01 1.1208940678770000e+01 9.6136047233010000e+00
28 1 8.4608414585459997e+00 6.4673635195210002e+00 2.0539689686170002e+00
29 1 2.9416423385770001e+00 1.1331541949989999e+01 6.9572274336900000e+00
30 1 3.1166092747490000e+00 1.8892515964250001e+00 2.7800394258579999e+00
31 1 6.9354278067660002e-01 3.1258999997860002e+00 1.1061935981780000e+01
32 1 2.4484558414960000e+00 9.4591276831050006e+00 1.0937907175930000e+01
33 1 1.5225225867160001e+01 7.6738691038809996e+00 4.1699802430090003e+00
34 1 1.5106200256130000e+01 2.6192737694199999e+00 4.3283939106769997e+00
35 1 1.6264145468450000e+01 2.6032335809879998e+00 8.5049098205180005e-03
36 1 1.2714158648650001e+01 7.8667331481799998e+00 6.6753740929790002e+00
37 1 8.9224979021939994e+00 1.1582333122980000e+01 2.9402201117920002e+00
38 1 1.0010731776549999e+01 4.5903811060540001e+00 1.1643642862629999e+01
39 1 3.2044169958660000e+00 6.4651357568190004e+00 3.5984255809220000e-01
40 1 5.0637210185420001e+00 8.3660543183070004e+00 8.5474229222590008e+00
41 1 1.2906642933970000e+01 7.8146631677189999e+00 1.1433926700500001e+01
42 1 4.2688480171530001e+00 2.4284110708669999e+00 6.8858309097439996e+00
43 1 7.2983730495970001e-01 1.3256737373449999e+01 2.2235593523489999e-01
44 1 2.0262054416530001e-01 1.3724524260890000e+01 8.4415585212449997e+00
45 1 5.4873190579619999e+00 1.3603102560220000e+01 1.1555259405699999e+01
46 1 1.3092733626959999e+01 5.7152074638199997e+00 1.3146106849800001e+00
47 1 4.4999802345550002e+00 1.0262444138059999e+01 1.4417702429000000e+01
48 1 9.7690841921599993e+00 1.4376134577649999e+01 1.0302067553590000e+01
49 1 1.3892076975669999e+01 1.5156697073560000e+01 9.4355803089279995e+00
50 1 1.1113649031290000e+01 7.5704241080990000e+00 1.4735999595239999e+01
51 1 1.3992450395450000e+01 1.5138879109170000e+01 1.3772888120030000e+01
52 1 1.1881668636490000e+01 1.5073910241699999e+00 9.2253981882290006e+00
53 1 6.5982935968390004e+00 5.7053923192229998e+00 5.3445469586799996e+00
54 1 4.2504303061430004e+00 5.6675841374439995e-01 1.0817660001400000e+01
55 1 1.3072891366880000e+01 3.0310903978970001e+00 1.4454442023600000e+01
56 1 7.9563540378440001e+00 1.2816088742580001e+00 8.7326362314239994e+00
57 1 1.2927539349310001e+01 1.1454206751370000e+01 1.3467303213530000e+01
58 1 8.5215319646940006e+00 1.3915306795990000e+01 1.4847806419490000e+01
59 1 2.0522395269970000e+00 1.4525308781190001e+01 4.7539418750950002e+00
60 1 7.9704506247050002e+00 1.7476257266660000e+00 1.3561402589849999e+01
61 1 1.2059981259690000e-01 7.9982678766279998e+00 8.5668384785140006e+00
62 1 1.1997462242019999e+01 1.3457610107310000e+01 4.2298289066119998e-01
63 1 6.7540999216510000e+00 8.1061406147259998e+00 1.1864146374570000e+01
64 1 1.4593736090109999e+01 1.1327096705300001e+01 5.1488582348909997e+00
65 2 6.4308355809959998e+00 7.2204238977550004e+00 1.4651356920910001e+01
66 2 7.9778207151500000e+00 5.5041341074770003e+00 1.4791977836319999e+01
67 2 1.7966302543810000e+00 1.0212749462010001e+01 1.2773676934730001e+00
68 2 5.7245546516790002e-01 1.0635901760699999e+01 3.2079400248269998e+00
69 2 1.0666992885719999e+01 1.3094386983599999e+00 5.1611143455470003e+00
70 2 8.9718292747080000e+00 2.5163328192390000e+00 4.1146115749880003e+00
71 2 1.0668994310460000e+01 7.0734851890470001e+00 4.8384330283760004e+00
72 2 1.1321343185850001e+01 4.8646485599010001e+00 4.3634457527730000e+00
73 2 4.7725187425620001e+00 7.0447538108390004e+00 3.9837772511840002e+00
74 2 4.0570697629329997e+00 9.2944425896459997e+00 3.7049390677730001e+00
75 2 1.9627818746070000e+00 4.5972158585959999e+00 4.4874145511619998e+00
76 2 1.8332971459940000e+00 5.8904667215259998e+00 6.4321749707790001e+00
77 2 4.6511686046829999e+00 1.5313763567240001e+01 9.5361656145389995e-01
78 2 6.8040146921950004e+00 -2.2159838246580001e-02 1.5201426469079999e+00
79 2 1.0312149439640001e+01 1.1974285852770000e+01 6.4557149785640000e+00
80 2 9.1622835500860003e+00 1.4039710404770000e+01 6.5829290128420004e+00
81 2 2.7165698956119999e+00 1.4883454027040001e+01 1.3309317168430001e+01
82 2 8.6042508560810005e-01 6.2678933611849993e-02 1.3134705202790000e+01
83 2 9.2900684043320005e+00 8.7569375517050005e+00 9.2348166241489995e+00
84 2 8.4627695443289994e+00 1.0844997341599999e+01 9.9524765732109994e+00
85 2 1.4953955620169999e+01 1.6355923130720000e+00 7.5344086644830002e+00
86 2 8.7405326086229995e-01 8.6550689102739997e-01 6.9592335937380003e+00
87 2 8.5057540193540007e+00 8.2486449407840006e+00 6.0667293260920001e+00
88 2 7.1972033982479999e+00 1.0136396430920000e+01 5.6388276587149999e+00
89 2 1.5891431117250001e+01 8.6458361069540004e+00 1.5557512700580000e+01
90 2 3.1793387995430000e-01 1.0192589993160000e+01 1.3877686305290000e+01
91 2 5.8970744805340001e+00 9.8870834200230000e+00 9.3636378589489999e-01
92 2 7.9662179826479997e+00 9.0271043168320002e+00 1.8951740766229999e-01
93 2 9.8806914783280000e+00 9.8522780423509992e+00 1.3301779723930000e+01
94 2 8.5752872377619997e+00 1.1776712901340000e+01 1.3028307394690000e+01
95 2 4.7974843197150001e+00 1.3224953279070000e+01 1.4507533647690000e+01
96 2 5.7105439701709999e+00 1.5398095412260000e+01 1.4634626515300001e+01
97 2 1.5160035133509999e+00 5.9635137825279996e+00 1.1532541572920000e+01
98 2 2.8555190653700002e+00 5.4046923347889999e+00 1.3355527323790000e+01
99 2 1.4402835452600000e+01 1.5438545883350001e+01 5.6932328513219996e+00
100 2 1.3274423336030001e+01 1.5118193843369999e+01 3.6581076302779998e+00
101 2 3.5514341450870002e+00 1.2764795779270001e+01 2.4493941178330001e+00
102 2 5.8630558732560001e+00 1.2439098864809999e+01 2.6717856345030002e+00
103 2 1.0421745717189999e+01 2.7268714545780002e+00 1.3710387395370001e+00
104 2 1.0651532951429999e+01 4.0219064441510000e-01 1.2120083591560000e+00
105 2 5.8714077662330002e+00 1.3892601372330001e+01 8.6192601732210008e+00
106 2 5.5328803036340002e+00 1.4774391618570000e+01 6.4817948784009998e+00
107 2 6.0749773591769998e+00 4.3192974471410004e+00 8.7930000402489998e+00
108 2 3.7890187002990001e+00 4.8942417694009999e+00 9.0900950289170002e+00
109 2 1.1454547593039999e+01 1.0087594033160000e+01 2.4359586010899998e+00
110 2 1.3322483868100001e+01 1.0684364574980000e+01 1.1610446163370001e+00
111 2 3.9082969249319999e+00 2.3051080689700001e+00 1.4408334312450000e+01
112 2 5.7125686814490004e+00 3.7982231883069999e+00 1.4344660549460000e+01
113 2 8.4280755793120008e+00 5.8564841780019998e+00 7.9956588692360002e+00
114 2 1.0633908894870000e+01 5.0606356315659999e+00 7.9090986916329999e+00
115 2 5.3292475921850002e+00 3.1369949594080002e+00 1.1171532201659999e+00
116 2 7.2064682827329998e+00 4.1331108418189997e+00 2.1247405811500002e+00
117 2 1.3844040458460000e+01 1.0758451337369999e+01 9.5969105320099999e+00
118 2 1.1682693299209999e+01 1.1584844126560000e+01 9.7596121638300009e+00
119 2 7.4485364601209998e+00 6.9732091305299999e+00 2.3424858997490001e+00
120 2 9.5187180328010008e+00 5.9914941993859996e+00 1.8022904171570000e+00
121 2 3.8429849991929999e+00 1.1752270850850000e+01 7.5850533826220001e+00
122 2 2.0000026277009999e+00 1.0946198167280000e+01 6.3676985771119998e+00
123 2 2.4478014338100000e+00 2.6073836387729998e+00 2.1417881283589999e+00
124 2 3.8806609736039999e+00 1.2930113833490000e+00 3.4371980288390001e+00
125 2 1.5310847673070000e+00 3.0980837132599999e+00 1.1909235267380000e+01
126 2 1.6242605888949999e+01 3.0705709265770000e+00 1.0047860550070000e+01
127 2 2.5218368611559998e+00 8.8404992393389996e+00 1.1951156259979999e+01
128 2 2.3638946867119999e+00 1.0076237473490000e+01 9.9688315742799993e+00
129 2 -1.5947690880109999e-02 7.0493808817990002e+00 4.5182220067180001e+00
130 2 1.4294578104770000e+01 8.3567563044300002e+00 3.8522761188939998e+00
131 2 1.5585399102169999e+01 1.5927137673589999e+00 4.0415103166759998e+00
132 2 1.4721270935990001e+01 3.6613473578600000e+00 4.7575623976849997e+00
133 2 1.5892952567869999e+01 3.3308262022720001e+00 8.6324358013670000e-01
134 2 5.6905225539750004e-01 1.8929217297590000e+00 1.5430463003660000e+01
135 2 1.2066498431719999e+01 8.7315629032250008e+00 7.0937944575340000e+00
136 2 1.3461920159240000e+01 7.0236251761209996e+00 6.2484390717959997e+00
137 2 8.3437708985340002e+00 1.0689576957610001e+01 2.4702811882570002e+00
138 2 9.4147649970780005e+00 1.2457084999270000e+01 3.5823788664370002e+00
139 2 9.4262074182570004e+00 5.2539142074290002e+00 1.0914829436020000e+01
140 2 1.0629567613820001e+01 3.8709903275249999e+00 1.2361694184899999e+01
141 2 2.1251026564540001e+00 6.8566238154579997e+00 4.9533281032120002e-01
142 2 4.2899531128520003e+00 6.1014155996659998e+00 3.9756318537069998e-02
143 2 4.0433888472580000e+00 7.8194382964819997e+00 8.6893609645170002e+00
144 2 6.1193371019359999e+00 8.8694194084780005e+00 8.3806596764879995e+00
145 2 1.3202834053129999e+01 7.6973128043779999e+00 1.2568363318219999e+01
146 2 1.2662919357140000e+01 8.0457267134810007e+00 1.0286033439890000e+01
147 2 3.9216592754050001e+00 3.2612009262949999e+00 6.1145713547770004e+00
148 2 4.4536156994580001e+00 1.4874152495390001e+00 7.5813245482650000e+00
149 2 1.6743319711569999e+00 1.3951269401339999e+01 1.6289150765620001e+01
150 2 1.5943604822919999e+01 1.2624625454909999e+01 3.4939113762759999e-01
151 2 1.4814273527680000e-01 1.3375126931700001e+01 7.3188890975799996e+00
152 2 4.3910953211170001e-01 1.4069116392900000e+01 9.5285690615279997e+00
153 2 4.5091262388950000e+00 1.3186351810250001e+01 1.1067730698360000e+01
154 2 6.5248588701120003e+00 1.3847100719240000e+01 1.2066873937530000e+01
155 2 1.2268457413529999e+01 5.8654239540560003e+00 4.7319094798700001e-01
156 2 1.3780283184609999e+01 5.4189530101000001e+00 2.2027131292569999e+00
157 2 3.6545602185539998e+00 1.0007361299339999e+01 1.5174792734150000e+01
158 2 5.3967403075479998e+00 1.0456228685439999e+01 1.3696660468199999e+01
159 2 1.0759939698369999e+01 1.4888980901129999e+01 1.0583986015630000e+01
160 2 8.8295308286779992e+00 1.3808320691550000e+01 9.9106467723769995e+00
161 2 1.4388854231700000e+01 1.6167625039899999e+01 9.7432102979150006e+00
162 2 1.3546449017400001e+01 1.4091514997710000e+01 9.0841571155949996e+00
163 2 1.0488614227479999e+01 6.6806958622119996e+00 1.4251562331020001e+01
164 2 1.1715800508659999e+01 8.4337724244940002e+00 1.5289000973220000e+01
165 2 1.4471696881530001e+01 1.4134938994260001e+01 1.3323649334950000e+01
166 2 1.3498125939690000e+01 1.6087748126600001e+01 1.4188711846280000e+01
167 2 1.2057767871710000e+01 2.2330241712220000e+00 1.0107027080560000e+01
168 2 1.1659152925540001e+01 7.9854783578430000e-01 8.3048854308960003e+00
169 2 5.8894466757439998e+00 6.2432069307019997e+00 6.1230798150950001e+00
170 2 7.2370621133890003e+00 5.0934248924269996e+00 4.5891673983560004e+00
171 2 5.0471635981820002e+00 1.3183788796389999e+00 1.1131696838070001e+01
172 2 3.4514933878330001e+00 1.5943900813390000e+01 1.0466172139039999e+01
173 2 1.4101934370009999e+01 3.4503503961069999e+00 1.4182827618019999e+01
174 2 1.2047478954170000e+01 2.5252336445510002e+00 1.4793653681720000e+01
175 2 8.7890073340849995e+00 2.1037481694230000e+00 8.5315538884070001e+00
176 2 7.1510987069659997e+00 4.5231009912289999e-01 8.9472572790440008e+00
177 2 1.3520829944480001e+01 1.0868315311810001e+01 1.2611034066569999e+01
178 2 1.2102499730960000e+01 1.1966136430360001e+01 1.4169949045299999e+01
179 2 9.3095592403210006e+00 1.4584590446110001e+01 1.4282732712640000e+01
180 2 7.8524166648620000e+00 1.3175594318920000e+01 1.5430902363320000e+01
181 2 2.8086156390340000e+00 1.5156868314990000e+01 5.3645686516050004e+00
182 2 1.3119118912190000e+00 1.3910450313049999e+01 4.0852576224700003e+00
183 2 8.0491700405989999e+00 1.8632078323350001e+00 1.2401863796360001e+01
184 2 7.7907295218049999e+00 1.6202508151110000e+00 1.4745863350180000e+01
185 2 6.1636260561230005e-01 7.9541408268179996e+00 9.6159002154109992e+00
186 2 1.5720535276130001e+01 7.9554753178090003e+00 7.5736291769999999e+00
187 2 1.3024556675380000e+01 1.3864629810200000e+01 9.6983750863379996e-03
188 2 1.0973476256890001e+01 1.3110588777029999e+01 8.4371733936140003e-01
189 2 5.6647040998140001e+00 7.7169466398540001e+00 1.1796537327119999e+01
190 2 7.7980223703120002e+00 8.5812013061699997e+00 1.1965958812880000e+01
191 2 1.4475757852590000e+01 1.2056955188730001e+01 4.2506118015420000e+00
192 2 1.4570623813990000e+01 1.0616761865739999e+01 6.0906586595509999e+00

Velocities

1 -1.1489498865640000e+00 -3.1573527322880000e+00 -6.9714228755670005e-01
2 -3.3306494747960000e+00 -2.3937938170869999e-01 4.6733651779800001e+00
3 -3.9820411593129998e+00 9.8698881913199994e+00 8.9541793645929992e+00
4 -2.3462027093139999e+00 4.9626918795590003e-01 -2.7423255761309999e+00
5 -2.4075210031340002e+00 2.5759955444689999e+00 -2.4293924642550002e+00
6 -2.1521331803060000e+00 3.5427090945600002e+00 -1.1295173423110001e+00
7 -4.5026882399560000e+00 -1.1997551726680000e+00 -1.3549062599730001e-02
8 3.8948346400020002e+00 -1.8062032936279999e+00 -1.0369477254030000e+00
9 1.3599051142840000e+00 1.0388413438390001e+00 5.8730523323919996e+00
10 1.8729621946350000e-01 -4.2990697183749997e+00 -6.0760087376259997e-01
11 -4.9409608946299999e+00 8.5022696355500003e+00 -7.0418082430010003e+00
12 4.3025356532570003e+00 -3.1759035588779998e+00 -1.5987558146330001e+00
13 -8.6242285333379998e-01 -1.8944706990589999e+00 -1.6332641451040000e+00
14 6.4967731226840000e+00 7.8443312980469999e+00 2.7342942777240000e+00
15 4.5581614182859997e+00 4.9029204200069998e-01 6.6898730203219996e+00
16 -2.3720576784410001e+00 -7.7944403315989996e-01 -1.1831873231559999e+00
17 -7.3910214894189998e+00 7.8998023800119999e+00 -5.5655800780820002e+00
18 3.5324693477400002e+00 2.7578477655970001e-02 -2.1058736974249999e+00
19 -2.3781766726700000e+00 -2.8052188197110000e+00 -5.2773703471450002e+00
20 -4.4008558644739999e+00 4.4363801580819997e+00 5.1669077885889996e+00
21 5.3857366428480002e+00 -4.8920078905209996e+00 1.6018830352019999e+00
22 2.5085058809629999e+00 1.3822917041140001e-01 -4.0074429287470004e+00
23 -3.8936048805530001e+00 8.1203986181489995e-01 -7.0560613537829999e+00
24 3.3969874510620000e+00 -4.1668929549660003e+00 -1.1191507426379999e+01
25 7.9185095345680001e-01 -4.2609134253869998e+00 -1.3735840262270000e+00
26 -6.5728118169809999e+00 -1.7417254277640000e+00 4.1591708043450000e+00
27 7.6985202060200004e+00 2.5178122257430000e+00 4.3877358383010001e-01
28 -1.1674633267540000e+00 4.7908093254599998e-01 -3.1782322303189998e+00
29 -4.6316799620450002e+00 -4.8321237895740001e+00 2.9888806388169997e-01
30 3.6453701058549998e-01 -1.9144747743390000e+00 3.2014335003899999e+00
31 4.8422941523130003e+00 -2.8523426898149999e+00 -5.1910843609320001e-01
32 -3.2107551632770002e+00 -6.3814119554799997e-01 -3.7657984701200000e+00
33 -3.1850850987010002e+00 2.0388867696299999e+00 -6.1769231911750003e-03
34 -1.0277965338780000e+01 -1.8770929132290000e+00 3.5254853689340000e+00
35 5.3975761611299999e+00 3.2991248076330000e+00 -6.4403569409130004e+00
36 6.6669769501899996e+00 -1.4937386128890000e+00 4.2978816736490000e+00
37 -4.4821930647089996e+00 -2.6816706893740001e+00 6.6124674379280002e+00
38 7.1021130588490000e-01 -5.8343593932009998e+00 1.3367804827830001e+00
39 3.9548014773009998e+00 3.9310144154270001e+00 -5.6579704508819999e+00
40 -4.7416526665839998e+00 -6.2835456369139999e+00 6.6123274970279999e-01
41 -9.3549486551290002e+00 4.0686590945540004e+00 4.4884694646740000e+00
42 3.3551637594669997e-01 -4.9015787761000001e-01 -1.0771809196220000e+01
43 3.2128034893419999e+00 1.1303142010200000e+00 4.3152799958510002e+00
44 -5.9127674541969997e+00 1.2989306276060000e+00 -6.4928517610820000e+00
45 -5.1214148360699996e+00 1.7657851560680000e+00 -1.6728467420510000e+00
46 -2.2027211319230000e+00 -8.8551949305819999e-01 2.1138438171720000e+00
47 8.5407700658069996e-01 -9.1321308388980000e+00 -8.4784660396380005e+00
48 -5.4244540279560001e+00 2.6256905605609999e+00 -3.0750969183610000e-01
49 4.5982128293690003e+00 3.8535431458480001e+00 6.2530921612010004e-01
50 2.5022345998820001e+00 -7.9384704231469998e+00 -7.9389702073999997e+00
51 8.0070095551040001e+00 1.0358034676350001e+00 -5.7893061237429997e+00
52 -2.6591035304939998e+00 1.2985594756990000e+00 -5.3057535209989997e+00
53 -7.5647989208849997e-01 -3.8146140514870002e+00 7.0683608204600001e-01
54 1.3647224344650000e+00 -2.8274115374469999e+00 -8.1964882985580001e+00
55 2.8332268495770001e+00 1.3470845450670000e+01 2.7132746728120001e+00
56 3.3600212658130002e+00 1.3150006321530000e-01 -2.4182472666980002e+00
57 2.3126338036949998e+00 -5.6609608289939999e+00 2.7781629126929999e+00
58 -4.5312870090689996e+00 1.7305901501059999e+00 -1.9612386981229999e+00
59 -1.9421490260670000e+00 -9.0791796642939993e+00 1.5180793335260001e+01
60 9.9279224857749995e+00 -1.8338940781740001e+00 -1.9285168107100001e-02
61 4.3508552692449998e+00 2.9617022629580001e+00 -3.3477002212240001e+00
62 -7.7997679354570004e-01 -6.9322976397109999e+00 -6.2433716304839999e+00
63 -7.6244679527180004e-01 -7.1873517929200004e+00 -7.1180309784549998e+00
64 9.4742395533460009e+00 -7.1184664203410000e+00 9.0093273303629999e+00
65 8.1845648493570000e-01 -2.1812653528100001e+00 9.7542824852050003e-01
66 -1.0184062002350001e+00 -6.8267422480309996e+00 2.4888176891790001e+00
67 -1.9261417944340001e-01 -3.5709770721249998e+00 -3.6626381803969998e+00
68 8.9459724701279997e-01 -6.9375636001860004e+00 5.4007625584919996e+00
69 -2.5072442309120002e+00 -4.7916004858540001e-01 3.7383395176719998e+00
70 4.5983104151159999e+00 3.3563632867600002e+00 5.7035129520540000e+00
71 -5.0439307150379999e+00 2.6246720919800001e-02 -4.4635985398839999e+00
72 3.2775412999269999e+00 -6.4254872334369999e+00 -3.2291292269340000e+00
73 -1.8652881354730000e+00 -8.3643516997459999e-01 3.4875190614939999e+00
74 5.4819158544969999e-02 -2.9370319764940001e+00 5.6226081837430000e+00
75 3.7670872845200001e+00 1.1766761206140000e-01 -4.9824056174829998e+00
76 -3.2462745283240002e+00 -4.8364641737380003e+00 -2.5709057335479999e+00
77 -1.7349133906580001e+00 3.4934193883500000e+00 -3.2149749566360000e+00
78 -6.1398909148050000e+00 -1.3264113214160000e+00 -3.8821912995800001e+00
79 5.4444781080349998e+00 -2.1934829289800000e+00 -4.1471785297689996e+00
80 -4.2494222954960001e+00 2.1766688722579999e+00 -5.6747440377210001e+00
81 5.8830679811069997e+00 -1.5620591517189999e-01 4.7066890803819996e+00
82 -3.1381957218070000e-01 -1.6707587823990000e+00 -6.4602440564370003e+00
83 5.0131304905330003e+00 -1.6951161669970001e+00 2.7539675721979999e+00
84 5.5709880922190003e-01 7.2176274988489997e-01 -2.3862858749339999e+00
85 -9.2218234246110004e-02 -4.1243904612950004e+00 1.0030345108380001e+00
86 -7.0345894022379998e+00 -3.2727255572340003e-01 -2.4386988766519999e+00
87 3.1449532212890001e+00 -2.7703266403589999e+00 -1.2694087692770000e+00
88 6.4931311578850001e-02 5.3258423145600000e+00 4.0836196591089999e+00
89 -2.7510832097600000e+00 3.0177083628679999e+00 -4.1641568782679999e+00
90 -6.3230437965439998e+00 -1.0949006878020000e+00 4.7058737491100002e+00
91 -5.0392431397810000e+00 -8.4344201455019991e+00 8.2264227320710006e+00
92 -3.4397806109290002e-01 -7.8548093657329998e-01 -4.3187767718960002e+00
93 -6.9380912047369998e+00 -1.6674090217180000e+00 -1.4601556441350001e+00
94 1.2169917695930000e+01 1.9486092405000000e+00 -3.3890981646689999e+00
95 -1.7012845533240000e+00 -3.3063475053059999e-01 1.0320954573670000e+00
96 -4.6908311800600000e+00 -3.4807141464829998e+00 2.5260761567720000e+00
97 -6.1501669896899998e+00 4.6260585652839996e+00 -1.3181846170780001e+00
98 -5.1737056437240003e+00 3.1539432830390002e+00 2.4941251049800002e+00
99 -1.4961328248070001e+00 1.1650021459269999e+00 -1.8568220833960001e+00
100 2.1175191340840001e+00 2.0974783200800000e+00 -6.6744846994420000e+00
101 -2.2169601252900000e+00 4.6143425947510002e+00 -1.7051321328089999e+00
102 -3.8167635556619999e+00 3.5731377683790000e-01 -7.5607571747979996e-01
103 2.8733654070600001e+00 3.7779147273580000e+00 8.8543039929059997e-01
104 -1.1114512547900000e+00 1.2617611917000000e+00 5.5216782800930000e+00
105 4.2745947726539999e+00 -1.3466662924570001e+00 -3.1905299538869998e+00
106 7.6439834665390005e-01 1.7936406429370000e+00 7.2337076190619998e+00
107 3.3273351272360001e+00 6.0321525053220002e+00 3.5092282917919998e-01
108 2.0303847104280002e+00 3.0460343134399999e+00 -4.4963760725239998e-01
109 1.9711986860160000e+00 -3.9681065305730001e-01 -2.4683912226419999e+00
110 1.6751628410240000e+00 3.2959151505439999e+00 3.1639464542950000e+00
111 7.4647672217179997e+00 -8.9158241915299996e-01 3.4169685632050001e-01
112 -5.1247659780020003e+00 -2.1243744244480001e-01 -2.8695541274370000e+00
113 3.3128412539059999e+00 2.5665798977069998e+00 6.1184029355040002e+00
114 -3.3434282177429999e+00 5.5334600725170002e+00 -1.2706392651989999e+00
115 5.1978987190000003e-01 -6.7627921981609997e+00 5.2560890317829996e+00
116 5.0923439214039998e+00 6.5151004549629998e-01 1.6688906268970001e+00
117 -6.6940433692239996e+00 8.4959775966490003e-01 2.7453755587400002e+00
118 -6.3894143230650000e+00 -1.1327074833070001e+00 1.2814637469050001e+00
119 -1.9472171797980000e+00 3.7064117277439999e+00 2.1492868286209998e+00
120 4.7641683029799999e+00 -7.3267309272089998e-01 2.0632830734510001e+00
121 4.6355393537480003e+00 -1.7082287171480000e+00 4.0714707649999999e+00
122 -1.9558164168580000e-01 -5.9504851918489998e-01 2.9626373865310001e+00
123 1.0538506313680001e+00 -3.4858291066149998e+00 -2.4596977216529998e+00
124 -1.2422120477830001e+00 -1.9895348570970000e+00 1.9554564762660001e+00
125 -4.2415513432719996e+00 3.2499168348010001e+00 -1.6797335716220001e+00
126 3.8677625997780001e+00 4.6051594265429996e+00 6.7212658076600000e+00
127 3.6111429530080001e+00 -7.8943216127450002e+00 -1.1374847800110000e+00
128 -3.7052119300189998e+00 3.7088728993959998e+00 -5.9360086429459997e+00
129 -4.6756131535990004e+00 -3.0820859600510002e+00 3.3181510652280002e+00
130 2.7865913397080000e+00 -1.2870658590430000e+00 -3.8804915417600001e+00
131 3.8642394935470001e+00 -7.1208476406120003e-01 -8.1495758178769995e-01
132 -5.7295508084659996e+00 1.0467331800009999e+01 -2.9725249961500002e+00
133 4.2986858376779997e+00 4.6422301781449998e-01 8.6671740468369993e+00
134 8.0896382789150003e+00 -3.8434188243660001e+00 -4.2343074254759999e-01
135 -4.7046497622150002e-01 -5.9644715628279998e+00 -1.9589058523730001e+00
136 -1.5570072712650000e+00 -9.6095044284669995e-01 -1.0029659202200001e+00
137 -2.5926907848580000e-01 -6.4898930762950000e+00 -2.1334257381730000e+00
138 -4.1834875362500004e+00 -3.2202163830470001e+00 4.6339819006420004e+00
139 2.6628326244410001e+00 7.5469836760940003e+00 -2.9343558511409999e+00
140 6.2874621681179999e-01 -6.5412229120129997e+00 4.2638693649129999e+00
141 2.5930671643930001e+00 -1.3291564146690000e+00 6.1369443273420003e+00
142 8.1467605888490002e+00 -4.1915649343790001e-01 -6.3272994892240000e+00
143 -1.9218360608970000e+00 9.0629285882610002e+00 -8.3280169166689999e-01
144 -4.3869008117270001e+00 8.3473509739320004e+00 1.1633263702320000e+00
145 -4.8621206051519996e+00 -2.1651942267759998e+00 -4.9354094468180003e+00
146 4.5092843588339999e+00 4.8753991264309997e+00 -6.7476641550950003e+00
147 -2.3769149795510001e+00 -2.6005519454760000e+00 6.6006579069490003e+00
148 9.5118154163530000e-01 7.0627205358270002e+00 4.1226924181030000e+00
149 7.9015347129189994e-01 1.2387162251860000e+00 3.2573657439970001e+00
150 1.4373455893530001e+00 -4.1500872754489997e+00 5.6688177730440001e+00
151 1.6682354978209999e+00 2.3139744626940000e+00 2.2844779933480002e+00
152 -3.6282062916280000e+00 1.8089279170050001e+00 3.8347759547079998e+00
153 2.7334541912030001e+00 2.8545211326539999e+00 -3.0026068643069999e+00
154 -3.5832316079150001e-01 -1.7151056501740001e+00 5.4632505182960003e+00
155 -1.9667776329270001e-01 -4.2779334181979998e+00 1.4795680796880000e+00
156 3.3711926891720001e+00 -4.5198144964150000e+00 -6.9501329180089999e-01
157 -4.5637519530970003e+00 9.3081339923939999e-01 -2.7520031390810001e-01
158 3.4829367876320001e+00 8.1609714164489997e+00 -2.1349300861930001e+00
159 -2.0985252140680002e+00 5.8512531222359998e+00 2.8544350456190002e+00
160 7.8945375439880001e+00 1.5741347947960000e+00 1.8716865261000000e+00
161 1.0948218381520001e+00 8.0248973298290007e+00 4.4798690258020004e+00
162 -4.8611318464110003e+00 4.5850815644220004e+00 8.7816081252519995e-01
163 -2.7366669904490002e+00 3.8148375738100002e+00 -5.1816088202700001e+00
164 3.9725071547350002e+00 -7.5057905165689998e-01 -6.0737447793860000e-01
165 -3.0634784215940001e+00 2.2568046441930001e+00 -2.6267111220340000e+00
166 1.0395605241090000e+00 2.3633788549140000e+00 7.9270820130399997e+00
167 -2.5940075718669999e+00 2.5829619406540001e+00 -4.5641671593459998e+00
168 7.8971827611909995e-01 -4.8170219273319997e-01 3.2321604476900001e+00
169 4.3491343586760003e+00 6.8065259568899998e+00 -1.3912865248709999e-01
170 -2.2200907489319999e+00 1.2064646990340000e-01 1.1941541869229999e+00
171 7.0824675742240002e+00 -4.3580229199350002e+00 -7.8967775022389999e+00
172 -2.9252604216270002e+00 2.4203690843020000e+00 -1.4183999661580000e+00
173 4.9513760929039998e+00 -3.7848428033229999e+00 8.5821933553670000e+00
174 4.1246619161670001e-01 1.0681764274000001e+00 -2.2338234686409999e+00
175 1.6835343334850000e-01 -1.0914090777840000e+00 -8.9189317627270004e+00
176 1.2403273651950000e-01 -1.3132164972830001e+00 8.0182661515919995e-01
177 1.5720736015360000e+00 5.9728468981229996e+00 7.2020586950150003e+00
178 -7.6856089422700002e-02 3.5735086470790001e+00 9.1170088641229996e-02
179 5.4236763292149996e+00 2.7107634905540001e+00 6.7867576000550001e+00
180 -3.3051964062230001e+00 4.2777476917149997e+00 -1.6050781737850000e+00
181 2.1279120483190002e+00 -1.5258988829320000e-01 -4.4019270274459998e-01
182 1.2342326656510001e+00 -4.0424879782309997e+00 1.0926908066040000e+00
183 -6.3999817427740000e+00 -1.5554625180870001e+00 2.6195323500719998e+00
184 6.8568526350140004e+00 -4.6987853640899999e+00 -5.3856600736839999e+00
185 -5.2361631328160003e+00 -7.6600796536479998e-01 4.7893979585919999e-01
186 6.8621673816090001e-01 2.5241473265550001e+00 -2.9741049694949999e+00
187 -7.6713175695559999e+00 -6.1359123596570004e+00 1.6869215854140001e+00
188 1.1118576918870000e+00 5.2725129261299997e-01 -5.0988115424130003e+00
189 -1.0394063442029999e+00 -7.0937530162689999e+00 -2.4877146329730002e+00
190 2.0529451599969999e+00 -4.9061244987299997e+00 -1.9104142496609999e+00
191 -2.6709438891519999e+00 -1.6449659522919999e+00 2.2798236104649998e+00
192 -3.7732443655140002e-01 4.6343649007980003e+00 -7.2396462546980000e-01
