LAMMPS data file extracted from NVT dump, timestep 2000000, units metal

192 atoms
2 atom types

0.0000000000000000e+00 1.6195563468200000e+01 xlo xhi
0.0000000000000000e+00 1.6195563468200000e+01 ylo yhi
0.0000000000000000e+00 1.6195563468200000e+01 zlo zhi

Masses

1 12.00000000
2 16.00000000

Atoms # atomic

1 1 6.4453579077990000e+00 5.3883886533939995e-01 6.7795972166569998e+00
2 1 1.2253232673950000e+01 8.5831430686880008e+00 1.7824168424939999e+00
3 1 1.1007087487740000e+01 1.1834996298689999e+01 8.0720398391600001e-01
4 1 1.4900952175030000e+01 1.1868302629860001e+01 2.6621999389290001e+00
5 1 5.8198322727329996e+00 3.0918393421419998e+00 1.1980989236999999e+01
6 1 1.0872318588150001e+00 6.3535806751569996e+00 7.2090431031889999e+00
7 1 2.2695057883270001e-01 3.6632958907569999e+00 1.1357150010990001e+01
8 1 9.7070678257150007e+00 1.8570343229420001e+00 9.7358490468000003e+00
9 1 1.3758008274370001e+01 5.6301559694019998e+00 1.2878426694520000e+01
10 1 1.5404058754479999e+01 1.4381510123540000e+01 9.2223857522609993e+00
11 1 7.3865013933199997e+00 1.4992829566019999e+01 3.0501784696310001e+00
12 1 8.2513542510679994e+00 1.0801021148880000e+01 1.4011459609539999e+01
13 1 1.3625191136590001e+01 9.4851567773689993e+00 5.9091231958229997e+00
14 1 4.3359668522329997e+00 1.1442333884150001e+01 1.3626275121340001e+01
15 1 1.4609764825119999e+01 3.0251817156209998e-01 1.2670316008429999e+01
16 1 1.3063918429970001e+00 2.7908711077300001e+00 3.5508213995909998e+00
17 1 5.6909006369839998e+00 1.5889795692609999e-02 1.2892994784480001e+01
18 1 1.7751590850470000e+00 8.0381439997679998e+00 1.1645686128870000e+01
19 1 1.4004455978919999e+01 1.4515056962899999e+01 5.3207525728040004e+00
20 1 3.7000628162579998e+00 9.1202131061940008e+00 1.2593060375100000e+00
21 1 1.3576245851530000e+01 2.7683469223930000e+00 9.5735695271529995e+00
22 1 7.4279775777190000e+00 6.6332426870900001e+00 1.1949200845860000e+01
23 1 1.7111760396280000e+00 5.8340383614790001e+00 1.5307978340100000e+01
24 1 1.3264635631770000e+01 1.8693429376249999e+00 4.5396289574930000e+00
25 1 3.9491180538910000e+00 1.1782869732040000e+01 9.7428797881149993e+00
26 1 7.7471957733729999e+00 1.0199518964710000e+01 2.7262157729009999e+00
27 1 1.0239737246940001e+01 9.3684811416749998e+00 1.1299297258950000e+01
28 1 9.6402569680960006e+00 4.2854752948590003e-01 5.6843893417080000e+00
29 1 1.0360817842170000e+01 5.9652585753369998e+00 7.2910656210819997e+00
30 1 4.2799490189000000e+00 8.3892437441260004e-01 6.4171842446170002e-01
31 1 1.1511845037820001e+01 1.1900459741440001e+01 7.6557016500610002e+00
32 1 7.2831427443259997e+00 2.4941971577289999e+00 1.5267218405860000e+01
33 1 7.1623703231320004e+00 1.3708840748029999e+01 8.1059190070390006e+00
34 1 7.2195390764610003e+00 5.0047287245209997e+00 8.0572894696699997e+00
35 1 7.9811997191239996e+00 1.2075870586360001e+01 1.0514789798560001e+01
36 1 1.6025391506780000e+01 9.9453427706020001e+00 1.5776811984809999e+01
37 1 1.0946166157000000e+01 1.5859170765420000e+01 1.6320027225589999e+00
38 1 1.2298403300160000e+01 8.6828815479249997e+00 1.4329577416890000e+01
39 1 5.9175536849970003e+00 6.7946032383129999e+00 1.5446672916220001e+01
40 1 5.1272331509760001e+00 1.2117199678880000e+01 4.7841624647319998e+00
41 1 1.6046140729030000e+01 1.1490379046719999e+01 1.1511650247320000e+01
42 1 1.3566073476310001e+01 7.6809566330879999e+00 9.2420797189839998e+00
43 1 2.6041242898679999e+00 9.2579855953199992e+00 4.5512630735429997e+00
44 1 1.2921888443260000e+01 6.0894442058880003e+00 4.1880511851420001e+00
45 1 2.5592398268820000e+00 1.5141638128849999e+01 5.6921505172940003e+00
46 1 1.1312021936360001e+01 1.5509580519869999e+01 8.0980601491050006e+00
47 1 1.2155527176970001e+01 1.3910982401900000e+01 1.1559670910670000e+01
48 1 1.0031987396220000e+01 5.0593453333109997e+00 1.5715431272560000e+01
49 1 -1.6161588737799999e-02 1.0187025762119999e+01 7.8283008740969997e+00
50 1 2.9077850664449998e+00 1.2937758717980000e+01 1.1200987022790001e+00
51 1 5.5283363620549997e-01 6.4788800116749998e+00 3.0101936996440002e+00
52 1 2.9167411107140002e+00 5.3756613722110003e-01 1.0860625681829999e+01
53 1 1.5058786507740001e+01 1.6156637243879999e+01 1.7866988078190000e+00
54 1 2.8533936729220000e-01 1.4103020887519999e+00 7.9829825061269997e+00
55 1 8.2749798476239995e+00 1.4333702866970000e+01 1.6092537460290000e+01
56 1 4.0654291720240003e+00 2.8727153076229999e+00 7.0848910078070002e+00
57 1 1.3798427495930000e+01 4.0690069402619997e+00 9.0889478727090001e-01
58 1 8.0136367944709992e+00 9.7992864560099999e+00 6.7304253339660001e+00
59 1 4.4534184126980003e+00 7.5829653942609996e+00 7.6782878895620001e+00
60 1 4.8104063374889998e+00 5.1048693437440003e+00 2.1363986480969999e+00
61 1 6.1156229823039998e-01 1.3831992938690000e+01 1.3996245897360000e+01
62 1 1.0786133911800000e+01 1.2560435270990000e+01 4.3195917413940004e+00
63 1 8.9344452973850004e+00 3.0548959375960001e+00 2.7764619084950000e+00
64 1 7.7769221968200002e+00 6.6747762436100002e+00 4.0552694496579997e+00
65 2 6.1517508009380002e+00 8.7929087976389997e-01 5.7019665726040003e+00
66 2 6.8202543155840001e+00 2.0859113882670000e-01 7.8650869585230003e+00
67 2 1.2708516129059999e+01 7.6304043415420004e+00 1.1824839308710000e+00
68 2 1.1732067721809999e+01 9.4248996594340007e+00 2.4085330378730001e+00
69 2 1.0217429274060001e+01 1.2230390168710001e+01 1.5451615913279999e+00
70 2 1.1803944357340001e+01 1.1542744687120001e+01 1.6199055002609999e+01
71 2 1.5666584307370000e+01 1.2351485686409999e+01 3.3869305933130001e+00
72 2 1.4245539421320000e+01 1.1342565015850001e+01 1.8732171577259999e+00
73 2 5.9152855711820003e+00 2.2754519347010000e+00 1.1131085804860000e+01
74 2 5.7127116280149997e+00 3.8288371483399999e+00 1.2898003142300000e+01
75 2 1.7732178214950001e+00 5.4428003066380004e+00 7.5870812558420004e+00
76 2 2.8434807170290000e-01 7.0367168580539996e+00 6.6337471717340000e+00
77 2 1.5726664102290000e+01 2.9610298655660001e+00 1.1952577266260000e+01
78 2 9.5885159265499997e-01 4.4222414166009996e+00 1.0804103483840001e+01
79 2 1.0549733637119999e+01 2.5677815852469998e+00 9.3200486079849991e+00
80 2 8.9068872094020008e+00 1.1743419328019999e+00 1.0234758290160000e+01
81 2 1.4175953210410000e+01 5.7558433794179997e+00 1.1768296313860001e+01
82 2 1.3458935959700000e+01 5.5202191325829997e+00 1.4051811633480000e+01
83 2 1.4663939297270000e+01 1.5220362824840000e+01 8.8300098291500007e+00
84 2 1.6083215252460000e+01 1.3425026368559999e+01 9.4153569666530004e+00
85 2 6.8537101000409999e+00 1.4367974381730001e+01 3.8583153483319999e+00
86 2 8.0876265489449999e+00 1.5583838695660001e+01 2.2858732246150000e+00
87 2 7.4438639450509996e+00 1.0572374552350000e+01 1.3195685455030000e+01
88 2 8.9959742407160004e+00 1.1001296804100001e+01 1.4878717271990000e+01
89 2 1.2592451655070001e+01 9.2197612116820000e+00 6.4243768921550002e+00
90 2 1.4579895603820001e+01 9.8217219071190005e+00 5.3004560635390003e+00
91 2 4.7937569574200003e+00 1.2297235274660000e+01 1.4304831261420000e+01
92 2 3.6720052576260001e+00 1.0692896141740000e+01 1.3006418564770000e+01
93 2 1.5092275725140000e+01 1.6100419152850002e+01 1.1690456217370000e+01
94 2 1.4141594509490000e+01 7.9419941768619995e-01 1.3631293172379999e+01
95 2 1.4270797327250000e+00 2.6395535223460000e+00 2.3931666128170002e+00
96 2 1.1539816610880000e+00 3.0136457213919998e+00 4.6975560282969999e+00
97 2 6.6571242518900000e+00 1.5746784853110000e+01 1.2401002555450001e+01
98 2 4.7361594569439998e+00 4.8336265838120002e-01 1.3396408310620000e+01
99 2 2.2416432228779999e+00 7.6615831652899997e+00 1.0653972460469999e+01
100 2 1.5003215065519999e+00 8.5335816303150001e+00 1.2662141088869999e+01
101 2 1.3466986575689999e+01 1.5306650626260000e+01 4.6327147896740000e+00
102 2 1.4604704955700001e+01 1.3776539532379999e+01 6.0268643953060002e+00
103 2 4.1954368955410004e+00 8.8200210286779992e+00 2.2614678735379998e+00
104 2 3.2487914607750001e+00 9.4309585195049994e+00 2.4336144498970000e-01
105 2 1.3063721306850001e+01 1.8493967589189999e+00 1.0078463042659999e+01
106 2 1.4005280172819999e+01 3.7593438533220001e+00 9.0820516752980005e+00
107 2 7.3774019671920001e+00 7.4456124635299998e+00 1.2775845538330000e+01
108 2 7.5013139792920001e+00 5.7642974753390002e+00 1.1162734450509999e+01
109 2 2.0867682180660001e+00 5.3288837710530004e+00 1.4346749301270000e+01
110 2 1.3743004944620001e+00 6.3863379414489998e+00 1.6281900797900001e+01
111 2 1.4329197454250000e+01 1.7387971312060000e+00 4.0584256180000002e+00
112 2 1.2164489073920000e+01 1.9984221774819999e+00 4.9460806543359999e+00
113 2 4.8089241240370004e+00 1.2144846867520000e+01 1.0476866859719999e+01
114 2 3.2535575020379999e+00 1.1411522910570000e+01 8.9057619936059993e+00
115 2 8.0738078811659992e+00 1.0084203732720001e+01 1.5905333520020000e+00
116 2 7.3586334063059997e+00 1.0261723662770001e+01 3.8410386268940000e+00
117 2 9.4438958456080009e+00 8.6547310635900008e+00 1.0755558019230000e+01
118 2 1.0898464549340000e+01 1.0063017804319999e+01 1.1967048959070000e+01
119 2 9.7241177685930005e+00 1.5922471290100001e+01 4.7291955390110001e+00
120 2 9.4888962027649999e+00 1.1984728653359999e+00 6.5357882181029998e+00
121 2 1.0812696053610001e+01 6.2344562259430001e+00 8.3484384049250000e+00
122 2 1.0085894572250000e+01 5.7076960909569996e+00 6.1853981581399999e+00
123 2 4.9723083959909999e+00 1.3462437146080000e+00 1.4966688595350000e+00
124 2 3.5576687191650000e+00 3.9174638563219999e-01 -1.5357672809119999e-01
125 2 1.1154272270880000e+01 1.1062456340630000e+01 8.4078139156959999e+00
126 2 1.1992776106739999e+01 1.2760713083020001e+01 6.9959718755060001e+00
127 2 7.6811840145270001e+00 1.4045973050950000e+00 1.5053618271170000e+01
128 2 6.9903668412959998e+00 3.5818291946619998e+00 1.5596511726699999e+01
129 2 6.0348877374379999e+00 1.3842321606850000e+01 8.3377516464059998e+00
130 2 8.2800690364479994e+00 1.3464170774059999e+01 7.8067124859419996e+00
131 2 7.4677997734500003e+00 6.1507004244710002e+00 7.8720311586580003e+00
132 2 6.9310036347019999e+00 3.8938637133039999e+00 8.1634409016910006e+00
133 2 8.1624342814460000e+00 1.1040900767149999e+01 1.0045275578300000e+01
134 2 7.7041090200409998e+00 1.3055377275780000e+01 1.1063916614620000e+01
135 2 1.5479077459939999e+01 9.0226077178789996e+00 5.2037348514820003e-02
136 2 4.3898184034900001e-01 1.0850519486390001e+01 1.5260944059000000e+01
137 2 1.1533356773070000e+01 1.4878853391560000e+01 2.0240613265279999e+00
138 2 1.0406479161640000e+01 6.3343342980289996e-01 1.2912925154360000e+00
139 2 1.3431849397650000e+01 8.9942161240120004e+00 1.4427292026580000e+01
140 2 1.1134207568280001e+01 8.4594265954969998e+00 1.4301423802200000e+01
141 2 6.9594551200360000e+00 7.1111574188100004e+00 1.5906823739889999e+01
142 2 4.8891008141410000e+00 6.5373347960329999e+00 1.4949499328780000e+01
143 2 4.5656299910599998e+00 1.1963749606009999e+01 3.7598532383999999e+00
144 2 5.5764146495059999e+00 1.2364294491250000e+01 5.8211186955059997e+00
145 2 1.5018362550080001e+01 1.1935430215969999e+01 1.1734273841909999e+01
146 2 8.7357954004329996e-01 1.0988027138820000e+01 1.1316583075020000e+01
147 2 1.2788814852370001e+01 8.2827426519130007e+00 9.8886156518329997e+00
148 2 1.4289675179560000e+01 7.2117891356890000e+00 8.4444262186010004e+00
149 2 1.8047410398640000e+00 9.9666694715930007e+00 4.0763947144720003e+00
150 2 3.4664975089740002e+00 8.6221335682839992e+00 5.0576677081280002e+00
151 2 1.2829153093920000e+01 7.2464236112349996e+00 4.4162021736329997e+00
152 2 1.2977264772020000e+01 4.9105306827130004e+00 4.0571976747870000e+00
153 2 2.6674399630690000e+00 1.4072028791279999e+01 6.1018090034540000e+00
154 2 2.6193381750030000e+00 7.9948199835879995e-03 5.2505198539739997e+00
155 2 1.1785825805440000e+01 1.6039673558869999e-01 7.4615703726340001e+00
156 2 1.0894388319580001e+01 1.4691045256250000e+01 8.8781364713179993e+00
157 2 1.2504178562060000e+01 1.3356206641709999e+01 1.0626238813780001e+01
158 2 1.1835289168610000e+01 1.4561994197770000e+01 1.2482277462060001e+01
159 2 9.9359793032559995e+00 4.0868984513699997e+00 1.5089465818160001e+01
160 2 1.0016884642280001e+01 6.1018750174159999e+00 9.6340137961250003e-02
161 2 1.0068895286630000e+00 1.0356685693479999e+01 7.2645957838030002e+00
162 2 1.5219320701199999e+01 1.0040927943380000e+01 8.4483897141340005e+00
163 2 3.8861625206069998e+00 1.3572984924629999e+01 1.0213494876180000e+00
164 2 2.0392131200189998e+00 1.2153662010750001e+01 1.2513034842349999e+00
165 2 1.5870148537140000e+01 7.2956939601490003e+00 2.8651363240240002e+00
166 2 1.5651082131220000e+00 5.8251872577919999e+00 3.0841545615290000e+00
167 2 3.5720343711850000e+00 1.6184286860450001e+01 1.0043039868950000e+01
168 2 2.2217395216810001e+00 1.1683209342830001e+00 1.1628213786560000e+01
169 2 1.4154098425590000e+01 3.8865132633770000e-01 1.1799032750150000e+00
170 2 1.5992545552999999e+01 1.5698291507910000e+01 2.3224480578410001e+00
171 2 1.3177909469539999e+00 1.2523567903380000e+00 8.5110289247630000e+00
172 2 1.5495120465219999e+01 1.8011104684829999e+00 7.4858035261130000e+00
173 2 7.1544137962540004e+00 1.3966011622100000e+01 1.6339252549000001e+01
174 2 9.3559934595529999e+00 1.4590770429080001e+01 1.5801928742130000e+01
175 2 4.1053732008420001e+00 3.2132643499969999e+00 5.9455859704070004e+00
176 2 3.9878427388250000e+00 2.4967352463510002e+00 8.2157845799439997e+00
177 2 1.2927197814730000e+01 3.3058515843010001e+00 1.0245099590240001e+00
178 2 1.4684721319359999e+01 4.8329220631330001e+00 7.7842881873100001e-01
179 2 6.9528178584490004e+00 1.0063846657690000e+01 7.0923412778559998e+00
180 2 9.0657392940620003e+00 9.3737583574030001e+00 6.3858771405850003e+00
181 2 4.0273489069190003e+00 8.6413439132390000e+00 7.9265292816130000e+00
182 2 4.9429913826979996e+00 6.5245915441799998e+00 7.4766419074210004e+00
183 2 5.4558271592500001e+00 4.8460312289439997e+00 3.1154218262879998e+00
184 2 4.3045139441689999e+00 5.3341653834829996e+00 1.0707833402410001e+00
185 2 1.5650273755750000e+01 1.3948800598460000e+01 1.4160658808000001e+01
186 2 1.7774084795070000e+00 1.3732422821260000e+01 1.3823273739930000e+01
187 2 1.1927682483140000e+01 1.2684604107760000e+01 4.2515392808149999e+00
188 2 9.6241696660349998e+00 1.2552808104249999e+01 4.4186426622030002e+00
189 2 7.8514749882119999e+00 2.9755290069970002e+00 2.2666361809210001e+00
190 2 1.0005321818900001e+01 3.2288435070110002e+00 3.2392265999920000e+00
191 2 7.9625264187750000e+00 7.4076519801299998e+00 3.1632895596249999e+00
192 2 7.5388550753260004e+00 5.9802043510100003e+00 4.9684987015030000e+00

Velocities

1 5.1979837579419996e-01 -5.2520247989089999e+00 -6.3836858401840004e+00
2 -2.8654716653009999e+00 1.0478668301950000e+00 -7.4866050515650002e+00
3 5.5155004315290004e+00 7.0978120876939998e-01 1.4020513065289999e+00
4 1.6254277851070000e+00 2.6743498487639998e+00 8.3865965410389998e-01
5 1.9417362041580000e+00 1.6604516590689999e+00 3.5384401518240001e+00
6 -4.6415533771220003e+00 3.9238691744390000e+00 8.3615383406910004e-01
7 -3.8356580054570002e+00 3.6787910358490001e+00 -4.2369544293099998e-01
8 -5.0807286391810003e-01 -4.4295612881289997e-01 -3.6902504573549999e+00
9 4.9690113929530000e+00 -7.5982174411699999e-01 -4.7035044123900001e+00
10 3.8840951938810000e+00 -6.9671770754450000e+00 -5.8527052796290002e+00
11 -1.7372871784720001e+00 5.3270159281670004e+00 -1.5681130212329999e+00
12 5.0605335763669999e+00 2.0540944010120001e+00 -2.0662705811239999e+00
13 -3.6109214635460001e+00 5.1080187437879996e+00 -1.1065350186510000e-02
14 4.3940265756350003e+00 -4.6930906390500002e+00 -2.4880307618790001e+00
15 -9.0259810252229999e-01 5.9335528347349999e+00 3.4149199362029998e+00
16 -4.8934110053579998e+00 9.4077042904510009e+00 7.9064177457809999e+00
17 -5.0477065667529997e-01 -2.7854109373920002e+00 -6.1967388772419998e+00
18 -1.0176438660610001e+00 -4.8414206957650002e-01 1.3248395649089999e+00
19 -9.1210422822120005e+00 -3.6014398110960002e+00 -4.0537639475539997e+00
20 1.7913082958160000e+00 -1.7823186763440000e+00 1.9157924528260001e-01
21 6.5925508050800001e+00 -1.5896219435709999e-01 -9.8670343694340001e+00
22 -3.0161995657479999e+00 -3.2584614491480002e+00 -3.2106798916130002e+00
23 -4.2584328057310001e+00 -1.0034947021570000e+01 1.9777888482579999e+00
24 -2.7317971290920001e-01 4.4427918600340002e+00 3.0149354531240000e+00
25 2.7807741200680001e+00 -6.2417799680480002e+00 -3.7889350099660000e+00
26 -5.0302552036239998e+00 -4.0369892642889997e+00 -9.6775481110939996e+00
27 -2.8312637048170002e+00 7.8616962557360004e-01 -8.2122573007569999e-01
28 -6.2015023689220001e+00 -5.2001504395230002e-03 7.4714233402750005e-02
29 -4.5120264939929999e+00 -1.8389167645360001e+00 -2.4685256026569999e-01
30 3.2225592028199999e+00 -1.0264693575790000e+00 -1.7702011741460000e+00
31 1.5588624350710001e+00 -4.6159625155660002e+00 -1.5594727530090000e+00
32 4.7350918360780003e+00 -2.3952467753800000e+00 -5.9785479423209997e+00
33 -6.1012372445059997e+00 2.8034314425829998e+00 -6.3544480853530005e-01
34 -1.4178782878309999e+00 -3.7111096070370002e+00 5.5143505607720000e-01
35 -6.5170445463380000e+00 -4.7257256569260004e+00 2.2178054203339999e+00
36 5.6057945674510001e-01 6.9583115047780000e+00 1.0010876549829999e+00
37 -1.0382007888480000e+01 -3.4045097231910000e+00 2.1784484249320002e+00
38 6.3167675572890003e+00 -8.4751452912600005e+00 -4.6451650326229998e+00
39 2.4851667838950000e+00 -5.1615859164769997e+00 1.9410928400800000e+00
40 8.7348130673570001e-02 -5.9741053724579996e-01 3.7058370461129999e+00
41 -1.7046356623840000e+00 -7.7150403463139998e+00 -2.6623256770369998e+00
42 2.1015145776559998e+00 6.7660851966320001e-01 3.0378368770140001e+00
43 -4.3685515345360004e+00 -1.0017114813350000e+01 2.6111522989229998e+00
44 2.1109664023539998e+00 1.1024185382210000e+01 -9.0437862412939996e-01
45 6.0938521181169998e+00 -1.9402498652439999e+00 7.3381139823719999e-01
46 4.4882740996569996e+00 7.6785193106740002e-01 -3.3264897406860001e+00
47 -3.7428380676419999e+00 -3.1881124422560001e+00 5.4258135345890004e+00
48 1.7309466039120001e+00 1.1011023147330000e-01 -1.0290027464110000e+01
49 3.3684973365999999e+00 8.0500096624159995e-02 -4.0488933083949998e+00
50 -2.1298918469400001e+00 -3.7046768715909999e+00 3.9883694250719999e+00
51 2.1445383484659999e+00 2.7997201806229999e+00 -2.6861779458999999e+00
52 -2.9382818806990002e-01 3.2363872977999999e+00 2.9937325964550001e+00
53 1.1538548501010000e+00 -9.4746688658510003e-01 7.8954375120989999e+00
54 -3.8934872465930002e+00 8.5036176157410004e-01 -2.4803978225400001e+00
55 3.4142518115890002e+00 -3.0137036978939999e+00 5.3986132828970002e-01
56 -2.6416887457770000e+00 -2.0684100467120001e+00 -6.0115451627549998e-01
57 5.0285438792860004e+00 -2.7587543698419998e+00 5.1253979704109998e-01
58 2.3748125338260002e+00 1.1588759185920000e-01 -1.0662346896920001e+01
59 2.3124803860559999e+00 -4.5275498910669998e-01 3.3419865441340000e+00
60 -4.5510119701129996e+00 3.1490152501709998e+00 2.5415976021900000e+00
61 -3.4742022984740002e+00 2.4486488412430001e+00 -1.2005465950050001e+00
62 1.1073557535150000e+00 1.6415378315000000e+00 -8.0755156469680003e+00
63 -5.8263050474620002e+00 -6.6488922348699999e+00 -1.3417929353489999e+00
64 4.6461802653320001e+00 2.9445369434380000e+00 -6.6481539244550003e+00
65 5.3415658189619997e+00 5.4755970679260002e-01 -4.0756807851249999e+00
66 6.8166738543459999e+00 5.2787527008490001e+00 3.8067693622309999e+00
67 -7.0815113989330003e+00 2.7332341848269999e+00 5.0929033975560001e-01
68 5.9386435248229996e-01 -5.7592714367209996e-01 -4.5257792017730001e+00
69 9.6091536708490000e-01 3.0459480245939998e+00 -5.6423167414890001e+00
70 -4.4690878417560000e+00 -6.1308998222230002e+00 6.4402767270689996e+00
71 -3.9333063264899999e+00 3.7060106126219999e-01 -1.5901441683499999e+00
72 -2.0220235224610001e+00 -2.7617473434459998e+00 -1.9024182075500000e+00
73 -5.3715025323459997e-01 3.6181247086499999e+00 -1.7548969669040000e+00
74 1.5834747671360001e+00 3.7543273672050002e+00 6.8288152315359998e+00
75 4.0656125839330004e+00 -2.6421343705150000e+00 3.4065191997579999e-02
76 -1.4978042908080000e+00 -4.3302478342280004e+00 3.8536806662620000e+00
77 1.1891578001600001e+00 8.3643154848919998e-01 -5.2129897982330000e+00
78 -2.3220695000410001e+00 -4.4845471459809998e+00 -5.7777168172510001e+00
79 -6.6902358910460000e+00 2.5126625560150000e+00 9.9196133973790002e-01
80 1.4726668729629999e-01 -8.9311815882279999e-01 -7.4226261264700000e-01
81 -2.3957125476210001e-02 1.0722149515910000e+00 -5.0241427643799996e+00
82 3.0483227452660000e-01 9.0078782140060003e+00 5.2431686545959999e-01
83 3.8220386418240002e+00 5.7778779968979999e-01 -5.3318077518729998e+00
84 1.9260646279390001e-01 -3.1800759072000000e+00 8.0274802328660009e+00
85 2.1637940599840002e+00 8.2123058330010001e-01 1.6566918816759999e+00
86 1.4494175177820001e-01 7.2552555522619999e-01 7.4863813962119996e-01
87 2.2647168901289998e+00 9.7291136013890001e-01 -5.8791019347350004e-01
88 3.0863106242059999e+00 2.7495368164420002e+00 -3.5364699721020001e+00
89 -2.0954613888460001e+00 2.4801856629580001e+00 -1.4631701999350000e+00
90 3.8574333486989998e+00 -8.0179735830830001e-01 3.2190941745820001e+00
91 -4.8394610594870002e+00 4.3018355589509998e+00 6.9939290233909999e+00
92 2.4300806675320001e+00 2.3023112928659999e+00 5.0090357398360004e+00
93 2.2362119784979999e+00 3.3726895045199998e+00 4.0101100428359997e+00
94 1.3303541957500000e+00 -3.7642079695230000e+00 9.9640603524570004e-01
95 -1.1859922348900001e+00 -8.7479325310610001e-01 -2.3041690292600001e+00
96 4.7536248345259997e+00 -3.5855787604990002e+00 -1.1098486361919999e+00
97 2.7524246269780002e+00 -1.8431885756369999e+00 -4.5840207345469999e+00
98 -6.1949855632370001e+00 -2.0606877845620000e+00 -4.5715940426969999e+00
99 -2.3990320544769999e+00 -6.9240118957550001e+00 2.2052778333599998e+00
100 3.1486820986769999e+00 -4.1851565105100003e-01 6.3917160949099996e+00
101 -4.6824318716770003e-01 -1.6176215842349999e+00 -3.3221247948329999e+00
102 -1.0219895184310000e-01 2.2224953236100001e-01 1.4990186748590000e+01
103 -2.7519596588709998e+00 -1.6785285969820001e+00 3.9807350148389999e+00
104 8.8517257214419995e+00 -3.3396333533050000e+00 -2.8271417155899998e+00
105 -1.2830832889220001e+00 1.0318967200970000e+00 1.9695754425720000e+00
106 9.4913647190390005e-01 -5.1845335807890001e+00 5.7934823215930003e+00
107 -6.1371045905429999e-01 2.5008035373320001e+00 3.3520970523770002e+00
108 1.9100762126099999e+00 -6.8100298675069997e+00 2.3010316669759998e+00
109 7.6390007926720005e-01 -4.1124010008520004e+00 2.5971036184670000e+00
110 6.8603008631000000e+00 -3.7780792241580001e+00 5.1350506288510003e+00
111 -9.6522110566039991e+00 -7.5400362834710002e+00 1.8175729578840001e+00
112 3.9132570458710001e+00 1.9943051187390000e+00 8.0152976497229993e+00
113 4.7376776613359999e+00 1.6158724033039999e+00 2.7178635000789999e+00
114 1.0764255449660001e+00 7.6311550099999996e+00 1.8106908951509999e+00
115 -4.3078140599939996e+00 -6.2072941960910000e-01 2.9662497493759998e+00
116 -1.7644594070599999e+00 -9.4470169605190002e-03 5.8075659424279999e+00
117 -1.2618386700040001e+00 -8.8606123919769997e-01 -3.5577570623220001e+00
118 -2.5654592202309998e+00 9.6887562889860002e-01 -8.4949870964590002e-01
119 9.7414746145709996e-01 2.5530982716130000e+00 1.3883385023710000e+00
120 -1.7935785231250001e+00 -3.2841210586990002e+00 2.9765802172630001e-02
121 9.1519170603840005e-01 4.1483686797050003e+00 -4.5457736621920004e+00
122 -1.3650972209349999e-03 -1.0991209186569999e+00 5.2096405672710002e+00
123 9.6604432267050000e-01 3.4745471194060000e+00 -4.4317771927850003e-01
124 6.0234052478860001e+00 2.9534964651869999e+00 -6.3018383745879998e+00
125 9.1135829702710003e-01 1.4988418359050000e+00 -4.4840253710400004e+00
126 -4.8063700203830004e+00 -3.9387718932919999e+00 -5.1599367329339998e+00
127 8.0990647016979995e+00 2.5900801739660002e+00 -1.7169826866739999e+00
128 3.2704829640959998e+00 5.0839583401880004e+00 8.0260788243079997e+00
129 2.7524962801070001e+00 -3.8070394722290000e+00 -9.4767008256579993e-02
130 -1.9099777062790000e+00 3.0805786123619998e+00 -1.6664345021589999e+00
131 -7.2293002020109998e-01 -6.5267920990080004e+00 -3.6660634483060002e+00
132 4.3105408948699999e+00 6.7345583180690003e+00 -8.2571759470190003e+00
133 3.0913755483130001e+00 6.9478226960770000e+00 -4.6713958369680002e+00
134 9.2490917211849999e-01 2.7611857181769999e+00 -1.5552518915239999e+00
135 1.5266995993950001e+00 -3.5650791903829999e+00 -5.0690069611029998e+00
136 9.6193280288810001e-01 6.8974492250189998e+00 2.4470807028900001e+00
137 -5.7802763021489998e+00 2.7520587793520002e-01 -3.9697718362469998e+00
138 -3.2589823756760001e+00 -5.3777281991650003e+00 2.6857946571290001e+00
139 -3.4301832675310000e+00 -5.0275297965960002e+00 4.1710481390320000e+00
140 -3.1591831288119998e+00 3.7357440745480002e+00 3.9118232555060000e+00
141 -6.8180772960019997e-01 1.5825396320880001e+00 1.8398283678839999e+00
142 4.5099814846440001e-01 5.5427710504659999e-01 1.5324631188330001e-01
143 -6.4002137146080003e+00 7.4430973564579999e+00 1.7118252172049999e+00
144 -3.8474253663589999e+00 -1.2701516840039999e+00 -2.2798673556710001e+00
145 -1.0566531091080000e-01 -9.0987769705950008e+00 2.6240252839039999e+00
146 -1.1290257272270000e-01 -7.0004027266100000e+00 -1.3951167058989999e+00
147 -3.0654522600149998e+00 3.6037850111899999e-01 -6.0001062440070001e+00
148 1.0336998250980001e+00 1.2535248514020001e+00 -3.5933049427190000e+00
149 2.2604267904799999e+00 -1.5063276598080000e+00 -3.1337613274549998e+00
150 3.9982344367209999e-01 1.4374661178410000e+00 2.8176452506020002e+00
151 -1.6652502487070000e+00 9.3285628195890002e-01 -4.3846713328550004e+00
152 1.8841722664900000e+00 -4.4780346676339997e+00 2.4320044705939998e+00
153 -3.5368775029730002e+00 2.2041986957830000e+00 -3.2691692037619999e+00
154 1.1875357928990000e+00 -5.3584472625300004e+00 1.8982777397910000e+00
155 9.2467050876640000e-01 2.1119112370319999e+00 5.2205572471360000e+00
156 -3.9656815273529999e+00 9.2415037932180000e-01 5.8415921685059997e+00
157 -6.7684100303869998e-01 -4.7295833276369997e-01 -4.9265750358070001e-02
158 9.7250340435350002e-01 6.9255448456990001e+00 2.6926821473130000e+00
159 -3.6134762837149998e+00 9.5076667658680003e-01 6.3439922434589997e+00
160 3.4730425739999999e+00 9.8485865340190004e-01 4.0450069828109996e+00
161 -6.7379283770439997e+00 -3.8496990029979998e+00 -7.8091863065549996e+00
162 -4.1680281718419998e+00 1.6224088688360001e+00 1.7820003971689999e+00
163 9.7282067459949992e+00 1.8753745443290000e+00 -7.0093845232950001e+00
164 -5.6584870882849998e+00 -3.0433834186089999e+00 -2.5014159400219999e-01
165 -1.7180787233040000e+00 -2.9806256688610002e+00 2.7665188667699998e+00
166 1.5558976828390001e+00 8.5288189901250000e+00 6.1954217091560002e+00
167 -2.2398277947829999e+00 2.7906770177160001e-01 4.4431923176649999e+00
168 -2.9287807490850000e+00 -1.6114844122400001e+00 4.3725733326530003e+00
169 -1.0917479887129999e+00 1.9488586644820001e+00 -1.0891532620930001e+01
170 5.7060672093880005e-01 3.1161285973160000e+00 1.1733510952599999e+00
171 1.7534391791740001e+00 8.9266119234179993e+00 1.0969368983159999e+00
172 -1.1963154494190000e+00 3.6340509742010001e+00 8.9900959058259999e-01
173 -1.3972415488959999e+00 3.6599887670390001e+00 7.5375741915749996e+00
174 3.4957882054120000e+00 -6.8533934646850003e+00 -3.6725116521910000e+00
175 6.4834152132579996e+00 -7.5245479967650004e+00 -1.5748853943379999e+00
176 -9.0456898706660002e-02 4.3939813775370000e+00 -3.6989076441969999e+00
177 -1.3635970443820000e+00 6.3921252423989996e+00 1.6062695974760000e+00
178 1.8220264007670000e+00 -5.2717247632410003e-01 6.1353754181860003e+00
179 1.6664499193250000e+00 -6.1500040216189999e+00 -2.7850204806240000e+00
180 -1.5058819379220001e+00 2.9752237109639998e+00 1.6360477440229999e+00
181 -1.5379185678570000e+00 5.0372591605370003e+00 6.2530480238399999e+00
182 7.6289749466260004e-01 5.0182571887520000e+00 3.4693413193599998e+00
183 -6.2799171821930000e-01 2.7330954604820001e+00 2.1127233345160001e+00
184 7.8890308474359996e+00 -1.7151495461649999e+00 -4.4880256532729996e+00
185 3.5821158938090001e+00 2.1467022840959999e+00 -7.0116084874849998e+00
186 5.7574901292750003e+00 2.0694555127490002e+00 3.4804051780049998e+00
187 -3.2651076915000000e-02 3.5516489575370001e+00 6.6969128868230001e+00
188 1.8045532787900000e+00 -2.4214318851119998e+00 -5.2262605521829997e+00
189 -3.3982847312789999e+00 -5.0298829135519996e-01 -2.3822265970570000e+00
190 4.8798603629479997e-01 -5.2479958178199997e+00 -4.3297840973280000e-01
191 -7.1795121586740001e+00 4.4430021545329996e+00 3.8645897468290000e+00
192 1.0632364381630000e+00 -2.7989135633809998e+00 9.5633615236659997e-01
