LAMMPS data file extracted from NVT dump, timestep 880000, units metal

192 atoms
2 atom types

0.0000000000000000e+00 1.6195563468200000e+01 xlo xhi
0.0000000000000000e+00 1.6195563468200000e+01 ylo yhi
0.0000000000000000e+00 1.6195563468200000e+01 zlo zhi

Masses

1 12.00000000
2 16.00000000

Atoms # atomic

1 1 1.5889240052250001e+01 5.2730807272679998e+00 1.1839159474790000e+01
2 1 7.9462001458539999e-01 6.1690739148720004e+00 -1.1686760610190000e-01
3 1 7.5003587879099998e+00 1.3590331034249999e+01 3.7359603165800000e-03
4 1 5.3338205541779997e+00 2.5846760402079999e-01 3.0446020425880000e+00
5 1 9.6078371228540002e-02 1.5609231033960000e+01 6.6213036699329999e+00
6 1 7.2242578849839996e+00 9.0572242869200004e+00 7.7533152766119997e+00
7 1 8.0051399922739996e+00 4.2564338009670000e-01 1.4676827321870000e+01
8 1 1.5517197197820000e+01 3.9537612117390002e+00 5.2070669454190002e+00
9 1 8.7343274232710009e+00 8.0963737441730004e+00 1.5426008285560000e+01
10 1 7.6991762838140003e+00 8.0730008353370000e+00 2.9768259946389999e+00
11 1 5.5915566324170003e+00 9.7655366941389996e+00 1.6066951582340000e+01
12 1 1.2931535006540001e+01 1.3368410626359999e+01 9.0201208490159992e+00
13 1 3.6612099241060001e+00 4.9632030545869998e+00 1.3705623949140000e+01
14 1 1.5608951152870000e+01 1.0751792061580000e+01 6.3304070488599997e+00
15 1 2.4627525668730001e+00 2.0845748340400001e+00 1.4328572401810000e+00
16 1 1.6457991669200001e+00 1.9234952793060001e+00 1.0061671221110000e+01
17 1 1.6236493007490001e+01 1.4643671920310000e+01 1.1193207452459999e+01
18 1 1.2473837341070000e+01 4.7170970745469996e+00 1.0929846133810001e+01
19 1 1.1058668924199999e+01 1.0999179796450001e+01 8.8502305674880000e-01
20 1 1.5748504651099999e+01 6.9599908269809996e+00 7.3697091520129998e+00
21 1 7.4403645248960002e+00 1.5431586658860001e+01 1.1536583614850001e+01
22 1 5.4837290474170004e+00 2.0514306283320001e+00 1.2331687614050001e+01
23 1 2.3432808778140002e+00 9.1052751733269996e+00 1.0715136622450000e+01
24 1 9.0384142463640007e+00 2.2639477369810002e+00 1.0856833334439999e+01
25 1 1.2625980243999999e-02 1.4244957620610000e+01 1.5198880905490000e+01
26 1 1.3548934404890000e+01 1.2983811688799999e+01 1.3382011273440000e+01
27 1 3.0818124787290002e+00 3.2577023029820000e+00 5.0499621290930001e+00
28 1 2.5069611716039999e+00 5.3126097926189999e+00 9.1805569346850007e+00
29 1 1.3202291223990001e+01 1.6065068285949999e+00 1.5515878505280000e+01
30 1 6.8843981866860000e+00 6.3773615488089996e+00 1.1010246054740000e+01
31 1 1.2524666032750000e+01 1.3440507139750000e+01 5.4527603707720003e+00
32 1 2.5678112509900002e+00 1.3705126419819999e+01 5.4969927358439996e+00
33 1 1.2507684928050001e+01 8.9904663441930008e+00 7.1695914909339997e+00
34 1 5.2522531482519996e+00 2.1854891716660001e+00 8.6915241423139999e+00
35 1 1.2501199680359999e+01 1.1276214474130000e+00 5.4659407785429996e+00
36 1 7.8400071824750004e+00 5.0828143817980003e+00 5.6128207194359998e+00
37 1 5.1691811872219997e+00 1.2158955555940000e+01 7.8189421370119998e+00
38 1 3.5487746120060000e+00 1.3667188122040001e+01 8.2699836982549998e-02
39 1 1.4517467048560000e+01 1.5755151376890000e+01 2.8033377943079998e+00
40 1 1.2722083299519999e+01 7.4899374610720004e+00 1.4994709254140000e+01
41 1 1.0126104504080001e+01 3.8273535634700000e+00 1.4403265526469999e+01
42 1 2.5142904096240000e+00 9.5972268443060003e+00 1.5254398119959999e+01
43 1 9.5523887258549998e+00 8.1501775434489998e-01 7.2879932357849997e+00
44 1 2.5921692020360001e+00 1.0786471100680000e+00 1.4188945798280001e+01
45 1 1.0263646600360000e+01 1.5113898676840000e+01 1.3597276863679999e+00
46 1 9.6135921013190000e+00 1.2166282081760000e+01 8.7653377911810004e+00
47 1 1.5249609745250000e+01 1.0129285006610001e+01 1.5903602157010001e+01
48 1 6.6855398668790000e+00 1.4875503304620000e+01 8.0351836034719994e+00
49 1 9.5912661835709994e+00 3.3876062962820002e+00 2.4199203639100002e+00
50 1 9.6647784964850008e+00 1.1579121203460000e+01 4.5151048123360003e+00
51 1 1.4048320018869999e+01 4.1120584038299999e+00 2.0254471252680002e+00
52 1 1.3322147699600000e+01 1.0991028427300000e+00 9.9259119642910001e+00
53 1 2.9662842918060002e+00 6.9922871337650001e+00 2.8641174115890000e+00
54 1 1.1461307272159999e+01 5.0981622840209999e+00 6.6960028466350003e+00
55 1 1.4845359313550000e+01 8.5771366507139994e+00 1.0361589601660000e+01
56 1 4.2483959791660002e+00 7.8493255031929996e+00 6.3974505541309998e+00
57 1 1.3671425749770000e+01 7.6641748938610004e+00 3.2431983099970001e+00
58 1 6.5012402141210002e+00 4.0874325275479997e+00 3.1357998872659998e-01
59 1 1.0566350704250000e+01 1.4004334200790000e+01 1.2567283911680001e+01
60 1 5.9931337446199997e+00 1.0043484998869999e+01 1.2470749435920000e+01
61 1 5.1246403833320002e+00 1.1184804282680000e+01 3.8311321565809999e+00
62 1 3.8374653678980000e+00 1.3581700434429999e+01 1.2042076407710001e+01
63 1 -1.0778820275140000e-01 1.1809365492240000e+01 3.1322264130600002e+00
64 1 1.0934491828480001e+01 1.0049516241930000e+01 1.2882343895289999e+01
65 2 1.0657239140510000e-01 4.6954052439279996e+00 1.0943541175420000e+01
66 2 1.5361150606490000e+01 5.7982893464489997e+00 1.2753448948340001e+01
67 2 1.3607291487360000e+00 5.8447614808630002e+00 1.5113773019250001e+01
68 2 2.4953229182480000e-01 6.5189636240300004e+00 8.6511018337949996e-01
69 2 8.5622922556649996e+00 1.3453233282810000e+01 1.5687459563139999e+01
70 2 6.4248862671809999e+00 1.3803827700159999e+01 4.7027154292680001e-01
71 2 5.2459389208060001e+00 1.5299877563340001e+01 2.8903523092830001e+00
72 2 5.4502792621129998e+00 1.4399839385880000e+00 3.2153262360800001e+00
73 2 7.4341892386730002e-01 1.4129508658020001e-01 7.2664483696769997e+00
74 2 1.5522434011780000e+01 1.4956658289090001e+01 6.0301377212589999e+00
75 2 7.2944377701830003e+00 1.0006206302390000e+01 8.4299174316890007e+00
76 2 7.0022143534849999e+00 8.0869126423720008e+00 7.1505022375299996e+00
77 2 9.0298514662539997e+00 7.6317089616290001e-01 1.4205127034849999e+01
78 2 7.1209677932230004e+00 -4.0695582831100002e-02 1.5275981060230000e+01
79 2 1.4620940375169999e+01 3.4904754761360000e+00 5.7728107621830000e+00
80 2 2.4957271463620001e-01 4.4853014502219999e+00 4.6481976041350004e+00
81 2 9.0544650928980008e+00 7.0012533424390000e+00 1.5175011782389999e+01
82 2 8.3494122721160000e+00 9.1764542846830004e+00 1.5625533706530000e+01
83 2 6.9480553595270003e+00 8.2237841972039991e+00 3.8561807911489998e+00
84 2 8.5550456367479999e+00 8.0677117504429994e+00 2.1702400940710000e+00
85 2 5.8059670129730003e+00 8.9606511696529996e+00 6.9745694462139995e-01
86 2 5.3968607284249996e+00 1.0532373568790000e+01 1.5226861675520000e+01
87 2 1.1851749886000000e+01 1.3810479021550000e+01 9.2814798089640007e+00
88 2 1.4006703931120001e+01 1.2900576474499999e+01 8.8267733626419993e+00
89 2 3.2724955934589999e+00 3.9094564321470000e+00 1.4016259454100000e+01
90 2 4.0884251471030000e+00 6.0188870339060001e+00 1.3392336056350000e+01
91 2 4.6255760037429999e-01 1.0804147496630000e+01 5.8463634221570002e+00
92 2 1.4561216220260000e+01 1.0880889512130000e+01 6.8493656815259998e+00
93 2 3.4849866499430000e+00 1.5351294725119999e+00 1.5308156118730001e+00
94 2 1.4413975562570001e+00 2.6657850584129998e+00 1.3471590575090000e+00
95 2 2.4978200079050001e+00 2.3416004532760000e+00 9.3955705054840006e+00
96 2 6.7167960175579999e-01 1.3904898145600000e+00 1.0502828636029999e+01
97 2 1.5769340045000000e+01 1.4807411446980000e+01 1.2235239313990000e+01
98 2 2.5826918309870001e-01 1.4469944879770001e+01 1.0077689274890000e+01
99 2 1.1383459710489999e+01 4.3414883848499999e+00 1.1125104798950000e+01
100 2 1.3540069804090001e+01 5.1892592939590001e+00 1.0773411826929999e+01
101 2 9.9857398786689995e+00 1.1241055108890000e+01 1.3114142923679999e+00
102 2 1.2139159565230001e+01 1.0703793098809999e+01 5.3614142530830000e-01
103 2 1.5067875660720000e+01 6.0221146497509999e+00 7.2175331733170003e+00
104 2 1.6385616486810001e+01 7.9403689584419999e+00 7.5406467869659997e+00
105 2 8.5585217921440009e+00 1.5586024087269999e+01 1.1163200399220001e+01
106 2 6.3894573119649998e+00 1.5077064086980000e+01 1.1946841715830001e+01
107 2 6.5071910927349998e+00 1.8187785949119999e+00 1.2889121858459999e+01
108 2 4.4675561018350001e+00 2.3984488649550002e+00 1.1814839185649999e+01
109 2 2.4538704500350002e+00 9.9792180770489995e+00 9.9626833464889994e+00
110 2 2.2898252326659998e+00 8.2661209074690003e+00 1.1561125174430000e+01
111 2 8.1595481063400008e+00 2.4296401386460000e+00 1.0132199699310000e+01
112 2 9.8652976336639995e+00 2.0604943932339999e+00 1.1659195378410001e+01
113 2 1.5614494106330000e+01 1.5067273124480000e+01 1.5759278299369999e+01
114 2 6.2949138012359995e-01 1.3386935301210000e+01 1.4732499469820000e+01
115 2 1.2948412882960000e+01 1.3680106515349999e+01 1.4118590683520001e+01
116 2 1.4080735150970000e+01 1.2221441458130000e+01 1.2634519294540000e+01
117 2 2.5813813209859999e+00 2.3102865710959999e+00 4.5299718466599996e+00
118 2 3.4493702051780000e+00 4.2011081581310004e+00 5.6261026141419999e+00
119 2 3.2555636922589999e+00 5.5954008443500003e+00 1.0019644496790001e+01
120 2 1.8982084403999999e+00 5.0213867235520002e+00 8.2196963293159993e+00
121 2 1.2846829335160001e+01 1.5622449029059999e+00 4.2149147796149999e-01
122 2 1.3446589453430001e+01 1.6851254720530000e+00 1.4363811100190000e+01
123 2 7.3570378996999999e+00 7.4041111675310001e+00 1.0746629624880001e+01
124 2 6.4102315869830004e+00 5.3125770726340003e+00 1.1183022814410000e+01
125 2 1.2110244897779999e+01 1.4419671731299999e+01 5.8905120499160004e+00
126 2 1.2880060297449999e+01 1.2446817819910001e+01 5.0057817932150002e+00
127 2 2.6991745155040001e+00 1.2757224890600000e+01 6.1955789094840004e+00
128 2 2.4223945119149999e+00 1.4650901279950000e+01 4.8843755293850002e+00
129 2 1.1777020283710000e+01 9.7316361594699998e+00 7.6708647606920000e+00
130 2 1.3302186177830000e+01 8.3189030086350009e+00 6.6375800345569997e+00
131 2 5.4690175962909997e+00 1.1688633714879999e+00 9.2243671118550008e+00
132 2 5.0802353002489999e+00 3.1271538852640002e+00 8.0027441552269991e+00
133 2 1.2139758897680000e+01 1.3577804822449999e+00 4.3533904747259999e+00
134 2 1.2862737810140001e+01 8.8660097279350003e-01 6.5389243387300002e+00
135 2 8.2802490833970008e+00 5.2863653325040003e+00 6.6790581077100004e+00
136 2 7.3372995060369997e+00 4.8919101678889998e+00 4.5407702757289998e+00
137 2 4.6477886198679998e+00 1.2413710596310001e+01 8.8373930991589997e+00
138 2 5.8019748639230002e+00 1.1982797561630001e+01 6.8030087658119998e+00
139 2 3.5484133772480000e+00 1.4348957914140000e+01 1.5327894568770001e+01
140 2 3.4790847923490000e+00 1.2983863629440000e+01 1.0493847131320000e+00
141 2 1.5193238810530000e+01 5.4183853918610003e-01 2.7561617965830001e+00
142 2 1.3773740301649999e+01 1.4863704295500000e+01 2.8127372820710002e+00
143 2 1.2879309444840001e+01 7.8422081509670001e+00 1.3903339909150001e+01
144 2 1.2754989945600000e+01 6.9686380374189998e+00 1.6055234741450001e+01
145 2 1.1277859784029999e+01 3.8088383946960001e+00 1.4747036640930000e+01
146 2 8.9914656383199993e+00 3.8314872253310002e+00 1.4081670002430000e+01
147 2 2.8918337447429998e+00 8.6547347763900007e+00 1.5869143444660001e+01
148 2 2.1133995269549999e+00 1.0512901542050001e+01 1.4630277106459999e+01
149 2 9.5629454295999992e+00 1.6707649256190000e+00 6.4973172854319996e+00
150 2 9.6538207734060002e+00 1.6210937961030002e+01 8.1329289498830004e+00
151 2 1.4719176302010000e+00 1.1972756216730001e+00 1.3918393370830000e+01
152 2 3.7279430332280001e+00 1.0335150578479999e+00 1.4393112881570000e+01
153 2 1.1152511354910001e+01 1.5058564298309999e+01 6.0412482321030003e-01
154 2 9.3838954068689997e+00 1.5157155411830001e+01 2.0910083567159998e+00
155 2 9.6723797491120003e+00 1.1610722721389999e+01 9.7881050944950001e+00
156 2 9.3344132381080005e+00 1.2805964443180001e+01 7.8333457979730001e+00
157 2 1.4989198309620001e+01 1.1259286995340000e+01 1.5878592950390001e+01
158 2 1.5397663342350000e+01 8.9857736887800002e+00 1.5861138860480001e+01
159 2 6.7273451413340002e+00 1.5541703868890000e+01 7.0207762531439997e+00
160 2 6.6625918735839997e+00 1.4254564458330000e+01 9.0325963687620003e+00
161 2 9.9931463894860002e+00 4.4584445496639997e+00 2.5784342695980000e+00
162 2 9.1182868064739999e+00 2.3675637417490001e+00 2.0816098183939999e+00
163 2 9.6594508817399998e+00 1.2563022940450001e+01 3.9204220137519998e+00
164 2 9.6701728905149995e+00 1.0572065559420000e+01 5.1151321675619998e+00
165 2 1.3679241692160000e+01 3.9026630889959999e+00 3.0934107746780000e+00
166 2 1.4331436769710001e+01 4.3452570293469996e+00 8.6939385396400004e-01
167 2 1.3648950763500000e+01 3.8405942039000003e-02 1.0252976736240001e+01
168 2 1.2946568006650001e+01 2.1934747664929999e+00 9.6570749018870004e+00
169 2 2.7876215758040002e+00 8.1159326483829997e+00 3.2253713720590000e+00
170 2 3.0553488612430000e+00 5.8466204900500003e+00 2.7116278506349998e+00
171 2 1.1035061587010000e+01 5.1696340941310002e+00 5.6061040783339999e+00
172 2 1.1931691284379999e+01 5.0594847336860003e+00 7.7881559230530000e+00
173 2 1.3843732373220000e+01 8.1599358237199997e+00 9.8787181099789994e+00
174 2 1.5823377597840000e+01 8.9502081842390009e+00 1.0868866374960000e+01
175 2 3.6240418288830001e+00 8.5203426307309993e+00 7.1666802821799998e+00
176 2 4.8433158911999996e+00 7.0331872660519998e+00 5.7897511180630001e+00
177 2 1.4460643760540000e+01 6.9008585872720003e+00 3.6388430996390002e+00
178 2 1.2830746224409999e+01 8.3828885006800000e+00 2.8585762568300002e+00
179 2 6.1772613451250002e+00 3.4816083545229999e+00 1.5547817968670000e+01
180 2 6.7254968652929996e+00 4.7940627861799996e+00 1.2225748857630001e+00
181 2 1.0129068671110000e+01 1.2887289118620000e+01 1.2606285462610000e+01
182 2 1.1027416800730000e+01 1.5075531868120001e+01 1.2412536687459999e+01
183 2 7.1094363185729996e+00 1.0424494356140000e+01 1.2631335449000000e+01
184 2 5.0285538098759996e+00 9.5499104807419997e+00 1.2088540018700000e+01
185 2 4.4675045059369998e+00 1.0260803545450001e+01 4.0320497573639997e+00
186 2 5.7103343866129999e+00 1.2190164619510000e+01 3.6641423408799998e+00
187 2 4.1828339727769999e+00 1.2571422825300001e+01 1.2476718460160001e+01
188 2 3.5830018200699998e+00 1.4629573797260001e+01 1.1597947861400000e+01
189 2 4.7512363597300000e-01 1.2688294793640001e+01 3.6083320338260001e+00
190 2 1.5585305552640000e+01 1.0826045444649999e+01 2.7148045462760000e+00
191 2 1.0382451494160000e+01 9.3033378528620005e+00 1.2135893447070000e+01
192 2 1.1506363112500001e+01 1.0672329537910000e+01 1.3748680313740000e+01

Velocities

1 -1.6877060977750000e+00 -1.5994255836100000e+00 2.7075058358840001e+00
2 5.4713289380449996e+00 -1.0184659732649999e+01 -1.4324707896260001e+00
3 3.8238561295600002e+00 -5.4058470287820004e+00 -6.6411546236469998e-01
4 -3.6378907641149998e+00 3.1385494966010001e+00 1.2320894881690000e-01
5 -2.5623385091649999e+00 8.0495147190259999e+00 -7.3398797228679999e+00
6 -7.5047775167050002e-01 2.4808076811010000e+00 -3.7149034862010000e+00
7 5.1556988064020003e-02 3.9597723185729999e-01 6.8032178206880003e+00
8 -5.3514549609369997e+00 4.2007928820600000e+00 -4.6800362452820004e+00
9 1.3265867508800000e+00 5.2333720711709999e+00 3.3640249786159999e+00
10 5.1968113886090004e+00 1.3870770855660000e+00 -9.1852655069879996e-01
11 1.1617749383610001e+01 6.0383619618999997e+00 -6.9970903186269995e-01
12 3.2296988881290001e+00 -4.4908212541520003e+00 6.0656952182910002e+00
13 -2.5389172752720000e+00 5.1770802844520003e-01 3.9465118548050002e+00
14 -8.5453432127069995e+00 8.8277699840239998e-01 4.6335409819009996e+00
15 1.0619271008609999e+01 8.8396079102070004e+00 -8.2210425179069997e+00
16 -1.8437464027749999e+00 9.2166931819459996e-01 -1.8414114214210001e-01
17 4.4754016906379999e+00 2.8614119872789998e+00 2.6801059541369998e+00
18 5.6704716793860001e-02 -2.1428126330530000e+00 -1.4426092676869999e+00
19 -4.5115382189669999e+00 -2.5681275496970000e+00 3.7248576822400001e+00
20 3.9099002728120000e+00 -5.0017244348289998e+00 -3.6955012870560000e+00
21 -6.6305024595119999e+00 1.9239440908609999e+00 -1.1350728185140000e+00
22 1.0672259164050000e+00 2.6595387424729999e+00 -1.6915026454210000e+00
23 -1.3555170832270000e+00 4.7459520658269999e-01 -7.2538051833730002e+00
24 -2.3292082518710000e+00 -7.6387985423979998e+00 3.8514698639090001e+00
25 2.2858382302089999e+00 -7.4445675431799998e+00 -4.9890066200950001e+00
26 -2.6981114637010002e+00 2.8484994640450001e+00 -3.9116901030330000e+00
27 6.7188784693290005e-01 -7.0280575152239999e+00 4.4250501178750001e+00
28 4.2400185004730001e-01 5.8195420848969999e+00 4.4720733584470002e-01
29 1.5450382756120000e+00 4.9021534726829996e+00 -1.4013526886040000e+00
30 2.4866965020629999e+00 -7.1852184035850000e+00 5.6740764548930001e+00
31 -3.5966727754090000e+00 -6.1617299720770002e-01 -7.2304275673829999e+00
32 -9.3337714949689996e+00 1.8935645307340001e+00 2.5583035520299999e+00
33 5.5489320805559998e+00 -3.1441936306180001e+00 5.9879434063070001e+00
34 3.5342377651299999e+00 -2.7699187070529998e+00 -2.4965807610440001e+00
35 -3.2894842901909999e-01 -7.1853219000180002e-01 -4.7074015460269996e+00
36 3.5085539894759998e+00 -1.6415445582749999e+00 -1.5586262026800000e+00
37 -1.6548452109609999e+00 -1.8683559276249999e+00 1.2077967593860000e+00
38 2.4343258582240002e+00 3.2495489797119999e+00 -7.5504341667599997e+00
39 3.7650593097370000e+00 2.4356401984140001e+00 -5.2034863359590000e+00
40 2.2838516107959999e+00 -7.5398193076749997e+00 5.3327421242459998e+00
41 -5.4494086009889999e+00 -5.5484784219680003e+00 9.6001811833710005e-01
42 -3.3573999712739999e+00 3.9821468390589998e+00 1.5348462486059999e+00
43 8.0281649482579998e-01 8.2657709425399997e+00 -3.8348951498989998e+00
44 -1.0704899333600000e+00 -5.2778065785479997e+00 9.0762787628740005e-01
45 1.4912589071450000e+00 1.4898578229049999e+00 3.9791071480290001e+00
46 -2.6826638283830002e+00 -1.6593280972860001e+00 -4.9660065062700003e+00
47 -3.0373978885559998e+00 4.3860563427740002e+00 2.2264781608790001e+00
48 -1.6925365434869999e+00 -1.7171285733570001e+00 5.2974221268130002e+00
49 2.1471918178760001e+00 3.7778375151339998e+00 1.8198964018670001e+00
50 -4.1477912936479999e+00 -1.2278430804780001e+00 3.4954020051639998e+00
51 -3.6491324381619998e+00 2.5592572574960002e+00 -3.5063834249129999e+00
52 -2.9501680922169999e+00 -6.7206801617350003e+00 -6.6411248849030002e+00
53 6.4213218678880004e+00 4.9765771427920003e+00 -4.1004142227619997e+00
54 -6.3538822001359998e+00 -2.8002972013059999e+00 2.7853081138250002e+00
55 1.0737490008420001e+00 -3.7913386302640001e-01 -1.0812871224310000e-01
56 3.5583366125999998e+00 1.4048061363019999e+00 -5.4113965443029999e+00
57 3.4006392293130001e+00 -7.2275909724550003e+00 9.5913589289960000e-01
58 9.4489078258869996e-01 -8.3106188654000004e+00 -1.9492054927760001e+00
59 4.0700584490480002e-01 7.9960987843359996e+00 -3.7792274470749998e+00
60 3.7653815380550002e+00 -1.5649420624549999e+00 1.0877529554870000e+00
61 -2.9604588283080002e-01 2.1891024284560001e-01 3.3037064774810001e+00
62 -6.0035991220720000e+00 3.4961324701740000e+00 1.3870374661850001e+01
63 -1.3923536980939999e+00 5.0839838053730002e-01 -6.5605620204229997e-01
64 1.2575027355890001e+00 2.0533839863229999e+00 -1.1041434748329999e+01
65 -3.2094274921640000e+00 6.7445724248029997e+00 4.3936592522300000e+00
66 -1.3154163736680000e+00 2.2259716662070002e+00 1.2695666566200001e-01
67 3.2581474770919998e+00 1.9618053143020001e-01 -3.8250024702609999e+00
68 -3.8831225289729998e+00 5.1180593492730004e+00 -1.7266288143010000e+00
69 6.6412505356710005e-01 -2.7220648838920001e+00 -6.0770541899669999e+00
70 2.9826267460690001e+00 4.3923565174399997e+00 -7.2989861751339999e+00
71 1.2190383773250000e+00 -4.7721023692389997e+00 -9.4989596487820005e-01
72 -2.9231624899909998e+00 6.6409830498169997e-01 9.1347300184780000e-01
73 -3.3600180772810000e+00 -4.1256583490659997e+00 -5.8042035911760004e-01
74 -1.4251405407750000e+00 -9.2364443837389995e-02 1.3376016550709999e+00
75 4.8642260094729997e+00 -2.1350582591220002e+00 4.0201916883630000e+00
76 -6.3204205691360000e+00 -2.7079029641400001e+00 -3.3272511096480001e-01
77 -8.1236392203770003e-01 8.6099017075420008e+00 -4.0596840627639998e-02
78 -2.1299607146269999e+00 -4.3799082004890000e+00 -8.8073669802569998e-01
79 -3.1261417553460000e+00 3.3387830534159999e+00 -5.9801761465869996e+00
80 5.3404326606730002e-01 1.6155025185180000e-01 -3.1641997663110000e-01
81 -1.6851027373350000e-01 -1.3988500216180000e-01 1.4150876402460000e+00
82 6.0064466778619998e+00 -1.5311417881570000e+00 -2.3397582481610000e+00
83 3.7734595385110001e+00 -8.1795978482060006e-01 2.1986517009950002e+00
84 4.4695729248680003e+00 -1.9476753378489999e+00 2.0417573535110001e+00
85 -1.6543023735910001e+00 2.9980624952950001e+00 -1.6401817186699999e-01
86 -3.4588583575950000e+00 3.9882582598320000e+00 3.6993268185489998e+00
87 -7.9253175917509999e+00 -5.2435980300620004e+00 -4.2215517554039996e+00
88 -6.8489652206569995e-01 -3.0017656849900001e+00 -4.7578697756830002e-01
89 3.5605911518480000e+00 -5.4025054578649998e+00 -2.0095431511460000e+00
90 5.9666832102680001e+00 3.3185609339059998e+00 -1.4098666824490000e+00
91 -5.2792075291189997e+00 7.6577441006880003e+00 -5.9337317995399996e-01
92 4.2066803514869999e-01 6.8267195160560004e+00 2.8656172355359999e+00
93 7.5884937415400000e-01 1.5986933153560001e-01 -2.1259793355780001e+00
94 1.6817933831570000e+00 -4.0717796360519998e+00 4.4953203748860000e+00
95 2.4717984587339998e+00 7.7895185655130001e+00 -2.9083909752629999e+00
96 -3.1478480887339999e-01 -8.9119784457530002e+00 1.9058651374950000e+00
97 -3.5072380936740002e+00 -3.9030982954740001e-02 6.0443077581500004e-01
98 9.8414284661929996e-01 -4.7895456395769997e+00 2.5698079862409999e+00
99 5.6165619297429998e+00 -3.0980696369850000e+00 -2.2982351290379999e+00
100 -4.9326561510199998e+00 6.3606304099230004e-01 2.0856295884199998e+00
101 1.0486247121850001e+00 -4.6001250493589998e+00 -2.2006008616030002e+00
102 6.8555929711959998e+00 1.4566366857019999e+00 2.0676184643470000e-01
103 -6.8993537679670003e-01 7.1431191044620004e+00 3.1097115969529998e+00
104 1.5375519086989999e+00 -1.2933697949830000e-01 -1.0624277941289999e+00
105 -6.8335104642370004e-01 -1.0871347687090001e+00 9.5656368780940004e-01
106 2.6929369314530001e+00 -6.5297103268519996e-01 3.8201657264960001e+00
107 3.2911803530340000e+00 -3.2885593134700000e+00 -3.6291988052849999e-01
108 3.1467312341740001e+00 -7.1654418262370001e-01 -8.8157350791980005e-01
109 2.5949746474700000e+00 1.5192869038229999e+00 -2.3217472975139999e+00
110 -3.0530770982019999e+00 -3.1362054274880000e+00 -8.5583458153830005e-01
111 -2.9483765898750001e+00 2.9080628074139998e+00 4.9680098841789997e+00
112 4.7485646276470002e+00 5.5347610424380000e-01 -1.8375076172450000e+00
113 8.0930980817249998e-01 5.2601987038450000e+00 1.0883941475190000e+00
114 -5.8693306341050002e+00 2.3588273878960000e+00 -2.0530242477290001e-01
115 7.2739193715260004e+00 -2.9108169513230000e+00 -2.9601675702139998e+00
116 -5.6723709474829997e-01 -1.8722406756500001e+00 -2.5711643164839999e+00
117 2.4643236498740002e+00 -3.7319470250190001e+00 -6.1091392504520003e+00
118 -2.2379371722510002e+00 -1.6388028337470000e+00 -2.2968243844590002e+00
119 8.2627294685060004e+00 -1.6889342155200000e+00 -6.9622027592700002e+00
120 -4.0867026629960002e+00 2.4436813798429999e+00 -8.4209491858969998e-01
121 1.4434541844800000e+00 -2.5489830996620002e+00 1.2119772398519999e+00
122 -5.0319349259069996e+00 4.0266424348039997e+00 1.5180974644170000e-02
123 -3.4127540242440002e+00 1.0045680443460001e+00 6.3073291826610003e+00
124 1.6519450165559999e+00 1.5283412480500000e+00 1.6782759180810001e+00
125 7.7113388316410001e+00 -2.3044970113060001e-01 4.2945444013490004e+00
126 -1.7695008329560000e+00 1.8180485503710000e+00 -2.0201269989149999e-02
127 -2.0263163816210001e+00 2.3216482494010000e+00 -1.8616297248500000e+00
128 -1.4244800607740000e+00 1.1861520829390000e+00 3.7136205412500001e+00
129 -1.9559708814850001e+00 1.0196946258420001e+00 9.7789803242130002e+00
130 4.1245864454439998e+00 8.7530247270539991e+00 1.8117055500529999e+00
131 -2.9776678191319998e+00 3.9356144449660002e+00 2.4711819341560001e-01
132 1.6817059918140000e+00 3.1513486120719998e+00 1.0650372947319999e+00
133 -2.2358197316449999e-01 6.4445728363799998e-02 1.7152804024720001e+00
134 1.9673983024310000e+00 -5.8063960134889996e+00 -1.0936597460340001e+00
135 4.7594244431680002e+00 -3.6965426921289999e+00 -8.7759683521039999e+00
136 -5.3157220757729995e-01 -1.9861017247930000e+00 -6.7753416446239996e+00
137 6.3736046883560000e+00 4.5403457838449999e+00 -1.6696106024330000e+00
138 -3.3850179859700003e-01 2.2105001508019999e+00 -3.2701922902490002e+00
139 -3.5112334643410001e+00 -6.2095328414899997e-01 1.6812245054830000e+00
140 1.2037337693190000e+00 -3.2400409178400000e+00 -7.1243968405980000e+00
141 3.0667375455219998e+00 -3.0626394046719998e+00 6.9377282600790000e+00
142 -2.4475339918510000e+00 9.3739569305749999e+00 -2.3675292364750000e-01
143 -3.4865357855510002e+00 -1.6938541415970001e+00 -9.4138367820570001e-01
144 -4.3710249205579998e+00 -2.2038725976590001e+00 -1.5263842845280001e-01
145 5.3134273150400002e+00 -2.5559157064610000e-01 3.5523829525420001e+00
146 -6.5705883679029997e-01 -2.4754231332450001e+00 -3.4705512299939998e+00
147 2.6677722822220001e-01 -3.1591911131399999e+00 -6.4604408624260001e-01
148 7.5229187054480002e+00 -9.6688830354840005e-01 -1.3577850704429999e+00
149 -2.5653182945789998e+00 -5.1615101318849996e+00 6.3040268244069997e-01
150 -5.0620264484500002e+00 6.6402708307480003e+00 1.2871387343400000e+00
151 4.3922195841910003e+00 6.6815448791590001e-02 -2.7262866862239998e+00
152 -6.8892970143900001e-01 -1.8730619354269999e+00 2.1883679935950000e+00
153 2.2936108028270001e+00 -7.5130291409950001e+00 -5.2605049579060004e-01
154 -6.1495747943660000e+00 -3.4984639062189999e+00 2.1705601118810001e+00
155 4.0389510885200002e+00 -3.9432000542679999e+00 -1.4575643601499999e+00
156 -1.1377298676400001e+00 -1.1206004959980000e+00 1.3139924742230000e+00
157 -4.2625619413700004e+00 1.4969856217780000e+00 5.1004510111120005e-01
158 1.1256234452150000e+00 -3.1641279330279999e+00 3.4390343748430001e+00
159 4.8977562907990002e+00 -3.1951542291460000e+00 -2.3318425565790002e+00
160 -2.9600737571400000e+00 2.4836252671440000e-02 -1.4159484138639999e+00
161 -3.9997203923970002e+00 -6.9893104588499999e-01 3.0621181065570000e+00
162 -8.0044929594099994e+00 -1.2610918527910000e+00 2.8422515078860000e+00
163 -4.7711167401869998e+00 1.1153106081180000e+00 5.1833424620450002e+00
164 6.1013658581660000e+00 1.4192182718460000e+00 -9.6596389358720003e-02
165 5.1197649586829996e+00 -2.0531430144420000e+00 5.8934028751170002e+00
166 7.4074568035399997e+00 2.0262164572489998e+00 7.6303868620130002e+00
167 1.0172923733820001e+00 -1.0285513864519999e+00 -5.6231868134280001e+00
168 9.6546911648900000e+00 6.8708356627459999e+00 3.4802609362100001e+00
169 -8.4457120217140003e-01 -5.7897897980380000e+00 -3.0364565651700000e+00
170 -5.1774410497799996e+00 3.5701252507990000e-01 4.4609352414870003e+00
171 -9.1413488545899995e+00 -2.1223184738010001e+00 2.8229704564120000e+00
172 -4.6281765128999997e+00 4.9576383450939998e+00 4.1846611682679997e+00
173 7.7825907741879998e+00 -1.4368421127669999e+00 7.3288743838390003e-01
174 -5.1806890048729999e+00 1.6318536885340000e+00 -1.7281793780690000e+00
175 -4.9595497361190004e+00 -2.6152606995650002e-01 -4.4809179338099998e+00
176 9.7779214732029995e-01 2.4507843582750000e+00 4.2708873541220003e+00
177 2.0434319438340001e-01 8.9159297879060002e+00 -1.4609670621630000e+00
178 -7.7585856536539999e-01 -3.8924331421440002e+00 1.9681080504060000e+00
179 -4.0923456036939996e+00 6.0057897368780004e+00 3.5701045798890001e+00
180 -5.2472956324410003e+00 4.6166134565980004e+00 6.6102384668719996e+00
181 -9.9401264844250004e-01 4.2105944222309999e-01 8.8011110912059998e-01
182 5.6906161496049998e+00 -1.3088573162910000e-01 -8.2017011279050003e+00
183 4.2720541241790002e+00 -4.2657835723759998e+00 -3.0806248334849999e+00
184 2.9745340078500000e+00 -1.0087610729550001e+00 3.4255052464680003e-01
185 -6.2217277062990002e+00 2.4168651575659998e+00 1.9002299396710001e+00
186 -2.4314629855100001e+00 3.2268681905849999e+00 -1.6327320552010001e+00
187 -8.8272958614900006e+00 -6.1038013457510001e+00 1.7796265261299999e+00
188 1.7053317277230000e+00 -4.0888433310660002e+00 -2.5497894478309999e+00
189 -3.1975446898860000e+00 -8.7906204511699997e+00 5.5147317963200004e+00
190 -1.6835506332720001e+00 -6.4868878383829998e-01 1.5997433893549999e+00
191 -7.9155301732199996e+00 2.8373370719010000e+00 -9.2961977765189996e-01
192 8.5766836195839993e+00 3.3439864649739999e+00 3.6400883430120001e-01
