LAMMPS data file extracted from NVT dump, timestep 520000, units metal

192 atoms
2 atom types

0.0000000000000000e+00 1.6195563468200000e+01 xlo xhi
0.0000000000000000e+00 1.6195563468200000e+01 ylo yhi
0.0000000000000000e+00 1.6195563468200000e+01 zlo zhi

Masses

1 12.00000000
2 16.00000000

Atoms # atomic

1 1 2.7471598019229999e+00 1.2007206890530000e+01 1.3494738842349999e+01
2 1 4.7438718467859999e+00 3.9327604249419998e+00 1.1445416044650001e+01
3 1 3.1177428849640001e+00 5.3172111969240001e+00 2.5906693203970002e+00
4 1 1.3211914338020000e+01 3.6165687309390000e+00 6.3268810697060003e+00
5 1 8.1274477157350002e+00 4.1875371789419997e+00 1.3490301159059999e+01
6 1 9.4231917408429999e-01 1.3854573358020000e+01 5.4825614114150003e+00
7 1 9.1406212930499997e-02 1.0961386905190000e+01 8.4905569483810002e+00
8 1 1.3998776636170000e+01 5.5945294732250002e+00 3.1933482213220001e+00
9 1 1.2184504521619999e+01 1.0292902883320000e+01 2.4909214655490000e+00
10 1 7.2818630923779999e+00 4.0425781723669996e+00 1.6296846776300000e+00
11 1 1.3139238424949999e+01 1.4123341360390000e+01 1.4520692790820000e+01
12 1 6.1923431635619997e+00 7.7341244773779998e+00 1.5798294570810000e+01
13 1 5.4002410695740002e+00 2.5688671434099999e+00 5.3128236695749997e+00
14 1 4.3208640040699997e+00 1.3671408580860000e+01 2.3700306633490000e+00
15 1 5.3824074160660000e+00 2.7897098110450003e-01 3.8413308179150002e-01
16 1 1.1112609330310001e+01 1.8864052368519999e+00 8.9352521622360008e+00
17 1 1.6248637362059998e+01 1.3444608492510000e+01 1.1261224138970000e+01
18 1 1.4664763907090000e+01 1.5631210245529999e+01 3.2054614642110000e+00
19 1 1.3607221225789999e+01 1.2377296944150000e+01 5.3534672521309998e+00
20 1 7.2229031448090000e+00 1.3981942710040000e+01 3.1009106181789998e+00
21 1 3.5512606282539999e-01 7.6318288018990001e+00 1.7761450524219999e-01
22 1 1.5878922265989999e+01 1.1786774413080000e+01 1.1829908747269999e+00
23 1 1.4664091078049999e+01 4.4188722049980003e+00 1.0405784173950000e+01
24 1 3.2525447926069999e+00 1.0554164096290000e+01 2.7395909432350002e-01
25 1 2.0365071958140000e+00 9.9230830738000009e+00 4.1088313724849996e+00
26 1 1.1905637391519999e+01 3.1455250504299999e+00 1.3052396857700000e+01
27 1 4.1247019225430002e+00 1.5371849882119999e+01 1.0892262275489999e+01
28 1 4.9065374511690002e-01 3.2890911690359999e+00 1.5844009311430000e+01
29 1 1.2050131939710000e+00 1.5788761771750000e+01 1.5339519862620000e+01
30 1 1.0125053119940000e+01 1.2039994624269999e+01 5.3442421321670004e+00
31 1 1.2208373010480001e+01 1.7422645038889999e+00 1.6074512959189999e+00
32 1 9.3981672770730000e+00 9.0070420737869998e+00 9.3570816454879999e+00
33 1 4.9908723070630003e+00 6.4444856135929998e+00 7.4422059291349996e+00
34 1 6.2809331918389999e+00 1.3052092454349999e+01 1.4300195315170001e+01
35 1 1.3543338065160000e+01 1.0369830899540000e+01 1.1216620469120000e+01
36 1 8.5597046662509992e+00 5.4054440723440003e+00 9.6037861005180005e+00
37 1 1.0547062124909999e+01 1.2422673189599999e+01 1.2364182584390001e+01
38 1 6.4550333285450003e+00 1.5586722887040001e+01 6.2722011410249996e+00
39 1 9.2048127470559997e+00 1.1134314795520000e+01 1.9911294898609999e-01
40 1 7.3246832383789995e-01 5.7844493584179997e+00 6.0529023005429998e+00
41 1 6.5913414965749997e+00 9.5243487921840000e+00 1.1747259418830000e+01
42 1 9.0334800950820000e+00 7.3641599475549997e+00 4.6854588687929999e+00
43 1 1.7161793731490000e+00 2.8065164047450000e+00 1.1334007746510000e+01
44 1 1.3908220971590000e+01 6.0186868396659996e+00 1.3749513427889999e+01
45 1 1.3908551873640000e+01 3.1427656316350000e-01 1.1434882617210000e+01
46 1 1.3166634883090000e+01 1.0309752957760001e+01 1.5233082269950000e+01
47 1 1.3044094760380000e+01 7.7736462052690003e+00 8.6448663260590006e+00
48 1 1.6325617688400000e+00 6.7416099406430003e+00 9.7856674285670007e+00
49 1 1.0025934742520000e+01 7.6415698871390001e+00 1.3064591611379999e+01
50 1 7.0488758427570000e+00 1.4861740157000001e+00 9.1287377997769994e+00
51 1 3.7167289156679999e+00 1.1623782705000000e+01 9.9195355272849994e+00
52 1 8.5870912195550009e+00 1.3599263041880000e+01 9.6981623335700000e+00
53 1 8.6661383018119995e+00 3.4054623390790000e+00 5.8307094255549998e+00
54 1 1.1845840494790000e+01 1.3913551112680000e+01 9.0934690775820002e+00
55 1 1.6296264100420000e+01 2.3784140451010000e-01 8.2910937345220006e+00
56 1 8.8052364506940002e+00 5.3630856073220001e-01 1.6080565156759999e+01
57 1 1.3742794217140000e+01 8.3085881181619996e+00 5.2214740704149998e+00
58 1 2.9435545350190000e+00 3.7357906975850002e+00 8.3830885929190000e+00
59 1 6.1650909720479996e+00 9.7425300071090000e+00 2.8264356483889999e+00
60 1 4.7656143209559998e+00 9.7838027720219998e+00 7.1828807089479998e+00
61 1 1.0537200390250000e+01 -2.8803549634810001e-02 4.9333542661390002e+00
62 1 1.4046897972869999e+01 9.6696452393279997e-01 1.5378604164070000e+01
63 1 2.3865981235430000e+00 7.0270023312490002e+00 1.3486113961259999e+01
64 1 1.4174533808009999e+00 2.1347456183840001e+00 4.4104434767659999e+00
65 2 2.8756742966959998e+00 1.2979748182650001e+01 1.4113780973170000e+01
66 2 2.6756838722100000e+00 1.1022315806730001e+01 1.2873929070180001e+01
67 2 4.7777796673059996e+00 2.7664503279910000e+00 1.1610876802800000e+01
68 2 4.6704521532859999e+00 5.0936740432490000e+00 1.1344844502490000e+01
69 2 4.2480476295129996e+00 5.3280243649910002e+00 2.3381662288710001e+00
70 2 2.0176142377809998e+00 5.3303409229090004e+00 2.9883757358369998e+00
71 2 1.3276103448720001e+01 2.4444562288220002e+00 6.1243442607190000e+00
72 2 1.3030064237400000e+01 4.7554056763280004e+00 6.6385141229529996e+00
73 2 8.5630539274499995e+00 3.1016019782950002e+00 1.3421067584799999e+01
74 2 7.7409595360900001e+00 5.2837596225210000e+00 1.3552310365440000e+01
75 2 1.6204931753779999e+01 1.4317403323410000e+01 4.9998558931419996e+00
76 2 1.9406785045229999e+00 1.3421406408250000e+01 6.0062287536570000e+00
77 2 1.6193438450870001e+01 1.2106306130129999e+01 8.3368807873319994e+00
78 2 1.5444915569170001e-01 9.8099995202789998e+00 8.6410340977650009e+00
79 2 1.2893472850800000e+01 5.1296882007160001e+00 3.2496028008739999e+00
80 2 1.5105790963910000e+01 5.9835497506359996e+00 3.0581237366980001e+00
81 2 1.2999679770369999e+01 9.5898737743019993e+00 1.9620338227390000e+00
82 2 1.1314182894589999e+01 1.1019335719400001e+01 2.8443365624810002e+00
83 2 7.6328558788510001e+00 4.6598113630690001e+00 6.9946166421070000e-01
84 2 6.7925314094699996e+00 3.4925946707829998e+00 2.5110375625270001e+00
85 2 1.2641474959480000e+01 1.4145813616240000e+01 1.3494838201189999e+01
86 2 1.3580705140239999e+01 1.4140655382100000e+01 1.5631823419660000e+01
87 2 6.9399051991810001e+00 8.4786978494569993e+00 1.5230928491280000e+01
88 2 5.4616044597969999e+00 7.0006125205830001e+00 1.3078002406910000e-01
89 2 6.1176233593750000e+00 1.7187439036220000e+00 4.9485985271360002e+00
90 2 4.6939521406419997e+00 3.4223527999650001e+00 5.6915720522760003e+00
91 2 4.9580842110730003e+00 1.3844983232830000e+01 1.3993738107380000e+00
92 2 3.6026228747200002e+00 1.3528074304200000e+01 3.2903289369700000e+00
93 2 5.0735693485590003e+00 5.2049778785699996e-01 1.4737644420339999e+00
94 2 5.7411961771069997e+00 1.1959470576440000e-01 1.5447490572460000e+01
95 2 1.2212451656500001e+01 1.5327598228099999e+00 8.7920120613160009e+00
96 2 9.9677936299069998e+00 2.1926217018440002e+00 8.9561551316560006e+00
97 2 1.5123566036330001e+01 1.3748857441300000e+01 1.1429601583489999e+01
98 2 1.1013885459079999e+00 1.3121398314820000e+01 1.0869835159530000e+01
99 2 1.3593493066640001e+01 1.5388427771820000e+01 3.5827332536770000e+00
100 2 1.5805915964100000e+01 1.5847921578610000e+01 2.9751691323739999e+00
101 2 1.4149330049080000e+01 1.1499539877589999e+01 4.7854237435230003e+00
102 2 1.3134090904200001e+01 1.3374176539640001e+01 5.8125714918050004e+00
103 2 7.7223173964180001e+00 1.4839304227230000e+01 2.4740230785350001e+00
104 2 6.6325079838320002e+00 1.3191443013460001e+01 3.7692979693300002e+00
105 2 3.2429571787619998e-01 6.7836802753979999e+00 1.5599569350490000e+01
106 2 3.9950505869500003e-01 8.5042612895810006e+00 9.7661905539329996e-01
107 2 1.6242632797020001e+01 1.1243117743499999e+01 1.9353936266800001e-01
108 2 1.5635099169909999e+01 1.2282251371519999e+01 2.2193291548020002e+00
109 2 1.5091559955919999e+01 3.3642176763289999e+00 1.0058806718000000e+01
110 2 1.4240993957490000e+01 5.4188945484969997e+00 1.0843703135149999e+01
111 2 3.3256623188079999e+00 9.7020363720050007e+00 1.5684207011880000e+01
112 2 3.1485402342789999e+00 1.1404969041079999e+01 1.1024263931010001e+00
113 2 1.0096212356540000e+00 1.0217982218880000e+01 4.5692216389390001e+00
114 2 3.0746532214640001e+00 9.6583244013020000e+00 3.5960783802430001e+00
115 2 1.1480477047300001e+01 3.0185077874060000e+00 1.4144890861080000e+01
116 2 1.2369168189170001e+01 3.1536055191040000e+00 1.1979371735750000e+01
117 2 4.3245787416210000e+00 1.5896684025840001e+01 9.8667661571259995e+00
118 2 3.9515109524960002e+00 1.4873459882460001e+01 1.1954351187060000e+01
119 2 7.2814813424689995e-01 2.6573016361600001e+00 1.4890273153270000e+01
120 2 3.2843375602699998e-01 3.7886560405630001e+00 6.8726069183850003e-01
121 2 4.5132237947080001e-01 1.5399632955840000e+01 1.4540148884240001e+01
122 2 1.9527201099150000e+00 1.6132481304740001e+01 1.3326765320550001e-02
123 2 9.3782688815139998e+00 1.2841518804500000e+01 4.9109162135959998e+00
124 2 1.0772670082890000e+01 1.1217472791990000e+01 5.8190187161870002e+00
125 2 1.1734927671319999e+01 7.2653112607500003e-01 1.1498772685230001e+00
126 2 1.2651606338690000e+01 2.7043177562679999e+00 2.0983859150800002e+00
127 2 8.6230333231880003e+00 8.4299521156600008e+00 8.7266027120569998e+00
128 2 1.0176061919760000e+01 9.4700086684670008e+00 1.0100389183500001e+01
129 2 5.1249207412939999e+00 5.8009091753280000e+00 8.4024425964349998e+00
130 2 4.6616990520660000e+00 7.0103910624659997e+00 6.4708251062390003e+00
131 2 5.7444542287490004e+00 1.2160797853520000e+01 1.4794502992600000e+01
132 2 6.8615427798770003e+00 1.3958029564080000e+01 1.3822265518860000e+01
133 2 1.2505175840940000e+01 9.8656416489919998e+00 1.1355842630420000e+01
134 2 1.4609540011120000e+01 1.0834885789790000e+01 1.1057982976320000e+01
135 2 7.8433241483870004e+00 5.8931870453229998e+00 1.0417952598179999e+01
136 2 9.2783244744529991e+00 4.9738298919880002e+00 8.7861843281829994e+00
137 2 1.0315948160160000e+01 1.1692620959899999e+01 1.3213092367160000e+01
138 2 1.0848798600129999e+01 1.3175999572340000e+01 1.1444873028869999e+01
139 2 7.5588634426460004e+00 1.5730836676050000e+01 5.8834227436180004e+00
140 2 5.3613878254829999e+00 1.5449350246020000e+01 6.6654462065129998e+00
141 2 8.9824015460769999e+00 1.2210376978499999e+01 1.5970369612190000e+01
142 2 9.4679266084089999e+00 1.0087579256950001e+01 5.9585205367880001e-01
143 2 1.2230892436230001e+00 6.7621390638470000e+00 6.4413978842360002e+00
144 2 1.7821245504159999e-01 4.7790608341669998e+00 5.8484985815629997e+00
145 2 7.1589746945619996e+00 1.0426065352249999e+01 1.1213378729780000e+01
146 2 5.9691973411810002e+00 8.7550874347070007e+00 1.2308024680859999e+01
147 2 9.0778610189119995e+00 8.0390888514190006e+00 5.6854899569089996e+00
148 2 9.0462373261080007e+00 6.7360212949780003e+00 3.7294887880259999e+00
149 2 1.6226409962449999e+00 1.6587013758920000e+00 1.1511631704799999e+01
150 2 1.9160365733610001e+00 3.9285777253380001e+00 1.1156285392279999e+01
151 2 1.4350185892570000e+01 5.0205681463950000e+00 1.4192097510389999e+01
152 2 1.3522076470520000e+01 7.0547643562909998e+00 1.3376316969070000e+01
153 2 1.3052086073970001e+01 1.5721822794750000e+01 1.1223472423170000e+01
154 2 1.4704662561790000e+01 1.1257759086360000e+00 1.1743305765170000e+01
155 2 1.2393447500740001e+01 1.1181803498380001e+01 1.5283801475410000e+01
156 2 1.3852611646430001e+01 9.3704148895890000e+00 1.5186108886490000e+01
157 2 1.3647211000400000e+01 8.7957958980930009e+00 8.7603106597119993e+00
158 2 1.2392034083810000e+01 6.8258530262520001e+00 8.6553489418030001e+00
159 2 2.7779313198289999e+00 6.8414610537650002e+00 1.0030623088510000e+01
160 2 5.0497610361720002e-01 6.5021391526350003e+00 9.5628791527570005e+00
161 2 9.4380998075889995e+00 8.6270603765989993e+00 1.2839240410910000e+01
162 2 1.0545432588770000e+01 6.6615077102760001e+00 1.3348261023399999e+01
163 2 6.9320912906030001e+00 1.9914876251500000e+00 8.0828807187980001e+00
164 2 7.1472225196270003e+00 9.3393676182359997e-01 1.0198594063660000e+01
165 2 2.8869933062080002e+00 1.1044556226039999e+01 9.2892425317490002e+00
166 2 4.6360950961330003e+00 1.2006741458050000e+01 1.0514927125050001e+01
167 2 8.5160622917560005e+00 1.4590641227710000e+01 1.0241534406620000e+01
168 2 8.6180316765130005e+00 1.2613956992500000e+01 9.0739277078930005e+00
169 2 7.7761394035570000e+00 4.1874027170719996e+00 5.7946947969889999e+00
170 2 9.6376989600090006e+00 2.7943895700439998e+00 6.0078054563860004e+00
171 2 1.2684921710330000e+01 1.3152837737670000e+01 9.4441218490749996e+00
172 2 1.1039649353400000e+01 1.4741981370820000e+01 8.8616798840740003e+00
173 2 1.5442541384009999e+01 1.5704860877310001e+01 8.0094389136040007e+00
174 2 8.3897272245790000e-01 1.1035544347210000e+00 8.4947251794110006e+00
175 2 9.5107048470429998e+00 1.6004045547170001e+01 1.5459365107340000e+01
176 2 8.2570499981659999e+00 1.3823252684800000e+00 5.0839897567229997e-01
177 2 1.4848165996320001e+01 8.0101034870960000e+00 5.5587712057180001e+00
178 2 1.2668277253550000e+01 8.6191815048860008e+00 4.8684973334419999e+00
179 2 2.2013207536000001e+00 4.5360952055619999e+00 7.9507287240080000e+00
180 2 3.6051849200810002e+00 2.8453413083690000e+00 8.7007622047210003e+00
181 2 5.9040730527170000e+00 9.8885557590859996e+00 1.6692259596550001e+00
182 2 6.4972373623150004e+00 9.6719946394490002e+00 3.9735958186330000e+00
183 2 4.2081934516730000e+00 1.0451402692049999e+01 6.3216946458210002e+00
184 2 5.3533170591410002e+00 9.3111399276330005e+00 8.0991668369279992e+00
185 2 1.0267315390780000e+01 9.1859030979749998e-02 3.7702259800609998e+00
186 2 1.1003911023560001e+01 1.6058508723399999e+01 5.9923754294940004e+00
187 2 1.3597206062460000e+01 6.9753643574960000e-01 1.4356767818990001e+01
188 2 1.4487283098620001e+01 1.0785328682499999e+00 2.4988012115300001e-01
189 2 1.3954372868810001e+00 7.1773612774359998e+00 1.2839828745489999e+01
190 2 3.3838207648309999e+00 6.9046689783130004e+00 1.4102074848499999e+01
191 2 1.1309365000460001e+00 1.7843729077410000e+00 5.5028861019499997e+00
192 2 1.5828556655879999e+00 2.4901174659110001e+00 3.3368068404739999e+00

Velocities

1 -2.8848051769819998e+00 7.1974212883949997e+00 3.0407452203899998e+00
2 7.7238323903749995e-01 -2.9534763459870002e+00 -4.8204018351210003e+00
3 3.2886034211479998e-01 2.5988877114940001e+00 6.8252438611630000e+00
4 4.3334107225169998e+00 4.6789184869320000e+00 -1.6713317747009999e+00
5 1.2031034628680000e+00 -1.8629022996869999e+00 -2.1068618069129998e+00
6 -6.7530748771659999e-01 -7.4247544018899996e+00 7.9400538049389997e+00
7 3.1696970678519998e+00 -1.9968519171660000e+00 -7.7562279489029997e+00
8 -6.5842937024720003e+00 8.8288651054529996e+00 1.1697247000180001e+01
9 -6.4473898313379996e+00 -4.2386732602719999e+00 -6.5727381037850003e+00
10 -1.9176117196769999e+00 -6.0101939148530004e-01 1.0646458398520000e+01
11 7.4690832268229999e+00 -6.2525983822039999e+00 3.4613128880980000e+00
12 3.7705518685829997e-01 3.4124407042009999e+00 -1.9150663304560001e+00
13 3.1553083254240000e+00 -2.7775810865069999e+00 1.2936938138609999e+00
14 -4.2363927554520000e+00 9.5295127741760002e+00 9.2099079176819991e+00
15 -3.8181323213820000e+00 -4.7821536436359997e+00 3.5701820470180001e+00
16 -2.0218458353909998e+00 -7.4402299095749997e+00 5.4130324510829997e+00
17 7.3021227390599996e+00 1.5280349059600000e+00 1.5943897177769999e+00
18 3.5959199572770002e+00 -1.7433960641599999e+00 -3.3514207812760002e-02
19 6.3703898193050001e+00 6.6326180888669999e+00 -4.9377479601870000e+00
20 -1.1358610620950001e-01 7.6106432988030004e-01 -4.0283412431199999e+00
21 8.6463402937830001e+00 -4.1613857977620000e-01 2.1263936878539999e-01
22 -3.2168540615639998e+00 1.7552949579410000e+00 -2.2902831889519999e+00
23 1.8468646505699999e+00 -3.6608721581190000e+00 -5.6576770760389996e+00
24 1.6292694940270001e+00 -4.0280612131230003e+00 -3.6977702874650000e+00
25 -3.1690074719850001e+00 -5.8226683364919998e+00 -4.1037354318940000e+00
26 -5.7198748762389995e-01 5.7194338637870001e-01 -1.0364559995120000e+00
27 -4.6495478415599996e+00 -3.9122482913360002e-01 2.1257192109259999e+00
28 -4.4344780781240001e-01 -7.1618657255969997e-02 -1.9855506064490001e+00
29 5.8371570823379999e+00 -2.7474711742530000e+00 -2.0113122822000000e+00
30 -1.2805613929480000e+00 5.7336658676520003e-01 -3.3954321440220001e+00
31 5.4990016120689997e+00 2.1141915218239999e+00 -1.4837962332690000e+00
32 2.7141001172140000e+00 1.8419576640719999e+00 -5.8436287548849997e+00
33 8.2211363427039998e+00 -8.4792249347080002e+00 -9.8221608737730008e+00
34 4.0713325376240004e+00 -5.4259676657710001e+00 -2.5511782192310002e+00
35 -6.4147169739800003e-01 -8.1162413544230005e-01 -6.0855226002059997e+00
36 4.0636522803080000e-01 2.6983791759610001e+00 -4.7347886518650002e+00
37 2.6944083712840001e+00 6.8751511845580005e-01 -4.6767098479219998e-01
38 2.6701956811279999e+00 1.3890535160190000e+01 -5.4173920598280001e-01
39 4.4132755504130001e+00 4.4166493120909998e+00 1.4116954804110000e+00
40 9.6212726013459995e-02 2.8288277362160001e+00 -4.3102698861290003e+00
41 3.7473920642610001e+00 3.5376824189699998e+00 -5.1407899162030004e+00
42 5.6554866436670004e+00 -4.4325770782809997e+00 1.5097474957860000e+00
43 -9.8283096042100002e+00 4.0609207260850004e+00 4.0757790006360004e+00
44 -6.4662674242270004e+00 7.8115942920150001e+00 4.2395725318249999e+00
45 -9.8230890499670007e+00 6.3492580669090000e+00 6.3177844998700001e+00
46 3.1214731875020001e+00 1.8274078172660000e+00 -4.2484231145400004e+00
47 3.2558868510979999e+00 -2.4686029193210000e+00 4.9296094062579998e+00
48 4.9863864925800003e+00 -3.8220960946000000e+00 -4.3456105732390000e+00
49 1.4212422819349999e+00 2.0925274239679998e+00 9.6198359034869991e+00
50 4.6203140177620003e+00 5.8404903243780000e+00 -2.8298341459070002e+00
51 2.5541415130939998e-01 -2.9794609656989999e+00 -1.5852624128960000e-01
52 2.4677448429180000e+00 -1.3675449478799999e+00 -3.0300593012830002e-01
53 -4.0813707092799998e+00 1.3925689016080001e+00 -2.6172295979330000e+00
54 1.7194749577320001e+00 2.8378930319250002e+00 -5.4557728292619997e-02
55 1.2275519995420001e-01 -3.9769844678389998e+00 1.0932622154870000e+01
56 6.1064739869929996e+00 5.9739378047859999e+00 9.3522937569080000e-01
57 -2.9610967464360000e-01 2.3285029258650001e+00 -1.7092213515390000e+00
58 -1.9389727965770001e+00 -1.8169616086410001e+00 3.4855087120879999e+00
59 4.4133122172799997e+00 3.9883870529430001e+00 -5.8901504140040002e+00
60 -4.7378309232830000e+00 -3.1013279626640000e+00 -9.5990797348710000e-01
61 -1.3457640852550001e-01 -4.4905146754979999e+00 -7.9153804582260001e+00
62 -2.6930117261639999e+00 -1.4855910810020001e+00 5.7262873296260004e+00
63 -9.8927734579670001e-01 -9.0368670744109991e+00 5.0625291187489996e+00
64 -2.4859496880840002e+00 -2.9414940400180001e+00 4.0456230095399998e-01
65 5.7473012444730003e+00 3.9180503899800001e-01 -2.2607640761519998e+00
66 -2.1177918032709999e+00 -3.6672416624889999e+00 5.6449980567739999e+00
67 -3.5557911690730002e+00 -1.2533637420460000e+00 3.2164170739290001e+00
68 1.8333375179100000e+00 -6.4948187574349996e+00 5.5063203020799998e+00
69 -3.4862108434060000e+00 4.7027084921990001e+00 2.1107934262439998e+00
70 -3.8573667358949999e+00 7.9258894176530004e-01 5.5309928659649996e+00
71 1.0022325554829999e+01 -4.0718104802379997e+00 3.0820109084589999e+00
72 4.5636777599430003e+00 -2.2664693107130001e+00 2.4336914116960000e+00
73 -8.9905408215849997e-02 -8.7744224929409995e+00 -1.8448270372280001e-01
74 -4.0471278300300000e+00 3.6690550877139998e+00 4.8331241672459999e+00
75 8.9227333771369999e-01 3.4516198072750002e+00 -4.7087383759200003e+00
76 6.1572152142040004e-01 3.2163765517440002e+00 -1.8443350083840000e+00
77 3.6799430821689999e-01 1.1753426332990000e+00 -1.3490360553480001e+00
78 3.4756945170000000e+00 -1.7394454884249999e+00 -2.2290028474980002e+00
79 -2.9784004474990000e-01 -2.4035684464800000e+00 -2.3629660584840000e+00
80 -3.2139374548110000e+00 4.8058249339879999e-01 -4.1880190699100002e+00
81 6.0907133597700003e-01 7.3877045254459999e+00 3.8274637124519999e+00
82 6.2087822063529998e+00 -7.7248040310619999e+00 -4.1054378593129996e+00
83 -2.6995583640050000e+00 9.9756277060380005e-01 4.7832193580210003e+00
84 -4.3415351794590001e-01 4.4114647661489997e-01 -2.0628744523370002e+00
85 2.5681530091570002e+00 -6.7702053786069998e+00 2.9983855492840000e-01
86 1.9367786711010000e+00 3.9877168499129998e+00 4.9580865363950002e+00
87 4.7171201699190002e+00 -8.0939740610449995e+00 4.8499619034599997e+00
88 2.1778512969640000e+00 -2.1894136325729998e+00 -1.0930886415590000e+00
89 5.6304576596139997e+00 -1.0798084106529999e+00 -6.6729629393119998e+00
90 -1.0872742001239999e+00 1.0390203397169999e+00 2.8040343676520002e-01
91 -6.3453996055780004e-01 -3.0819030392219999e+00 -4.8712866218829998e-01
92 7.5922779627320001e+00 1.8556634044550000e+00 2.8855646163089999e+00
93 -4.5324174717140000e+00 6.3954293242690001e+00 3.3991784443360000e+00
94 8.7889066426239992e+00 -2.0222586527639999e-01 -3.0495526947160001e+00
95 8.5552095969039998e-01 1.0864262781689999e+00 -2.2220757399980000e+00
96 -8.9626841645930003e-02 4.7067325123860000e+00 -6.6060810609429998e-01
97 3.4306274978550002e+00 5.3251408167919996e+00 3.1641399112230002e+00
98 7.6023185161829998e+00 -7.4451519883290000e+00 1.1119148781440000e+00
99 7.3719019535550001e-01 8.2801495233209998e-01 4.3762465413500001e-01
100 7.2892005701160001e-01 -2.1950704948460001e-01 -6.1366118593239998e+00
101 8.9267434900470004e+00 5.1246952059340001e-01 2.2569500297179999e+00
102 -3.5940376134209999e+00 3.2377663439309998e+00 -4.5107824915180004e+00
103 -5.1757512807859998e+00 4.4979147341220003e+00 9.4514002701119999e+00
104 -5.0786352713819998e+00 1.2281701605110000e+00 -4.9678833390049997e+00
105 2.8467925203029998e-01 -3.5101976226180001e+00 3.0432115660700001e+00
106 -6.6665153874490004e+00 7.4432604966220000e+00 -2.8398724656069998e+00
107 4.7978583126630001e+00 4.9465804662419997e+00 3.2980405455150001e+00
108 -3.9974100374880002e+00 1.7147376475980000e-01 3.4433172918360000e-01
109 -6.4998035959419997e+00 -5.6789966597440000e-01 1.2826440188960000e+00
110 5.0332804951119998e+00 -1.5263697506259999e-01 -2.2336065878250002e+00
111 -5.6985833213610002e+00 -7.4107954678969996e+00 -3.8806998164770001e+00
112 2.0565674372179998e+00 1.2815740357190000e+00 -3.5276582831400001e+00
113 -9.7126183547110001e-01 -3.0371138678070002e+00 -2.0845753676009999e+00
114 -5.8310166779979999e+00 -4.3780506430340003e+00 1.1708322565320000e+00
115 4.2145932576299999e-01 1.8519113281430000e+00 -8.7697502935970006e-02
116 -1.5184692836010001e+00 -1.0561447746590000e+00 -2.1488710586690001e+00
117 -8.7429553836969998e-01 1.7523659828770000e+00 -3.9483858263650000e+00
118 -1.1796105661240000e-02 6.0594939843619999e-01 3.3941033731279999e+00
119 -1.4125462618039999e+00 -5.2200723197459997e-01 -9.5166132218499999e-01
120 -5.8970056918370002e+00 -1.1660600746440000e+00 -6.7663959411420000e+00
121 -3.8051660432330001e+00 1.6923596307960000e+00 -2.8309667354619998e+00
122 5.4999973592499996e-01 6.4550155736969996e+00 -1.7442322180120000e+00
123 -2.7101059392079998e+00 -6.9459551536740005e-01 7.2837100008480005e-01
124 5.2361626186330001e+00 8.6073800372800002e-01 -2.9222073977840002e+00
125 2.9666378833409999e+00 4.0269615767370004e+00 -1.9600779907429999e-01
126 -7.3957292906990002e+00 8.7076595139419999e-01 -3.7631406305900001e+00
127 -3.0653834937390001e+00 9.3647195251320003e-01 -4.1361754115030003e+00
128 2.8649592135030000e+00 -3.5946487927169999e+00 -5.7045225935690000e+00
129 1.3533144412460001e+00 -1.9919607010500000e+00 2.7364465521799999e+00
130 -4.7997324357069999e+00 -3.4834157565230002e+00 8.1509161597710000e-01
131 -1.9672184274850000e+00 -5.4155854340270002e+00 -7.6480216187040000e+00
132 -1.2950890720960000e+00 1.1060802113699999e+00 3.7446748882810001e+00
133 1.6470010523550001e+00 2.2674646847269999e+00 1.9876761482430001e+00
134 1.5890907010519999e+00 -1.6936384116270000e+00 -6.9519322237290000e+00
135 -1.4188910734030001e-02 3.7253163212570000e+00 -4.2605391261349997e-02
136 -7.0735550536229996e-01 9.4180514939359998e+00 4.5470018452850001e+00
137 -1.1346755870980001e+00 -3.4035159117050000e+00 -4.0335106418070001e+00
138 2.0914308682240002e+00 1.2546832439850000e-01 3.9849482951490001e+00
139 -2.1924102001389998e+00 -7.7212141229260001e-01 -4.8430747817590003e+00
140 2.7596628122569999e+00 1.2675122295330000e+01 4.6146881913280002e-01
141 -6.8784750261300003e+00 -1.0904227022330000e+00 -5.4641582071280004e-01
142 -1.4739451511660001e-01 -1.8262821929060000e+00 -5.5225149394039996e-01
143 -1.0861751384420000e+00 -5.4334055945479998e+00 2.2638583340070002e+00
144 -1.8027048334010001e+00 -4.8780543344889997e+00 -2.5541846099779999e+00
145 -2.6448291581820000e+00 1.3609949092570000e+00 1.4539911370380001e+00
146 -7.5374182599289996e-01 -6.4240801003639998e+00 6.6713151206290000e+00
147 3.4014429586750001e+00 -1.1936621244810000e+00 1.0739631904060001e+00
148 -2.6634588617569999e+00 -1.8115371330540000e+00 6.6835938176029996e-01
149 2.9126923812299998e+00 5.5956435898140002e+00 2.5986888766940002e+00
150 -5.7044301212899995e-01 1.6032141677909999e+00 -1.2969829781540001e+00
151 -5.9527268706490002e+00 3.7997082414809999e+00 -1.2644765732180001e+00
152 3.5860650171390001e+00 2.9921999284890002e+00 -1.9918781960309999e+00
153 -4.8263518671150001e+00 3.4925829840270000e+00 3.5252448984529998e-02
154 -7.6601100311570003e-01 5.9657004767419997e-01 -1.5582308116250001e+00
155 -3.0879951060780000e+00 -1.7214707340340001e+00 2.8242446020890002e+00
156 2.6508832542210001e+00 -5.1612044052819996e+00 2.2121497061500000e+00
157 -1.0641395042380000e+00 -3.2379644739020003e-01 4.1628488317060004e+00
158 -6.1527177761849998e+00 -1.3070640890290000e+00 1.2648292757439999e-01
159 -1.8362610524759999e+00 -1.7216679089039999e+00 -1.9315145424000000e+00
160 -1.0574402946660000e-01 -2.5863103679460000e+00 5.6963497738150004e-01
161 3.8328241167489998e+00 2.2604119885439999e+00 4.7178910423209999e+00
162 -2.2599724034770001e+00 7.3244942204720003e+00 3.0347282697290001e-01
163 -1.3127054213239999e+00 -6.4683501792060003e+00 -1.6421870614170000e+00
164 -3.9947336839980001e+00 -1.2547673137280000e+00 4.5820795031620003e+00
165 -4.4825155610780003e+00 3.2868041318590002e-01 1.4965515768180000e+00
166 6.9698229126579996e+00 5.2468955181379999e-02 7.3190674387339998e+00
167 1.7697494071850000e+00 -6.0276300713050001e-03 2.2424083599319999e+00
168 -7.4714831823679999e+00 -1.8156932681060001e+00 -5.1849534187400002e+00
169 3.4542241523069999e+00 -2.1182028877760000e+00 1.1109239429740001e+00
170 5.8520515630640002e-01 1.1043265766699999e+00 -5.8938899928139998e-01
171 -5.0055575539069999e+00 3.1235904483649999e+00 3.3003758986600000e+00
172 -1.0020967980030000e+00 8.7850896151159996e-01 6.3792758143919999e+00
173 6.5377021644779996e+00 2.9543254347370002e-01 -2.9971172603800000e+00
174 2.1218960540929999e+00 -8.8030131786580001e-01 4.7031055150760004e+00
175 -2.7149476039759999e+00 -1.9255612910740001e+00 -2.0427227846510001e+00
176 1.3041181078410000e+00 8.1441406116810000e-01 2.7359522252409998e+00
177 -6.4418073038040002e-01 -2.5396002884350000e+00 3.9578085054360002e-01
178 -3.4914541198830000e+00 -6.8699719503029999e-01 -6.6236041885150003e+00
179 -6.8226481519580000e+00 3.8044486788450000e+00 1.5779534186780000e+00
180 1.6703725222220001e+00 -2.7977791382500001e+00 1.0651620823020000e+00
181 4.0552395723480000e-01 -1.3625900554340000e+00 -1.6749772987180001e+00
182 3.8127645125630001e+00 2.4676554540350000e+00 -3.7331253332390002e+00
183 -7.1288874006040004e+00 -1.3921720252330001e+00 -2.9889759146840000e+00
184 7.0136196600150003e-01 -4.9712990441910003e+00 6.2225982107890001e+00
185 -5.9487734083949997e+00 -3.8127907750049999e+00 -8.4865402663370002e+00
186 3.3744854334230001e-01 2.9444330671990002e+00 8.1386993523179996e-01
187 4.7642516096490004e+00 -3.2230964243139999e+00 2.3354605620990001e+00
188 9.8287492156080003e-01 -3.8240142438509999e+00 4.1715994717799996e+00
189 5.2114756293650002e+00 1.1016141937660000e+00 -4.8717076845239999e+00
190 -6.0724412567929997e+00 3.8403881869430001e+00 2.8935358941399998e+00
191 -3.0597321875130001e-01 2.0596427250830001e+00 -9.8233581748309995e-01
192 -1.1655913646450000e+00 2.8711117917250002e+00 -3.4707085724579998e+00
