LAMMPS data file extracted from NVT dump, timestep 20000, units metal

192 atoms
2 atom types

0.0000000000000000e+00 1.6195563468200000e+01 xlo xhi
0.0000000000000000e+00 1.6195563468200000e+01 ylo yhi
0.0000000000000000e+00 1.6195563468200000e+01 zlo zhi

Masses

1 12.00000000
2 16.00000000

Atoms # atomic

1 1 5.1101228921589996e+00 1.3528290043860000e+01 4.8321288289330000e-01
2 1 6.3362806692540001e+00 6.6426687502060000e+00 1.0294080076680000e+01
3 1 1.4898736781890001e+00 1.4788597092260000e+01 7.6036162565470002e+00
4 1 1.4457794438310000e+01 1.0844139773740000e+01 1.4259253693540000e+01
5 1 1.4607477704520000e+00 6.1107295525970002e+00 6.9810432756280001e+00
6 1 8.4441938461669999e+00 3.8427353687460002e+00 5.7472647382839996e+00
7 1 1.6550191279310000e+00 6.3267754272830001e-01 2.2286787314669998e+00
8 1 1.1623998686529999e+01 1.0225674928569999e+01 9.7058951247379994e+00
9 1 1.1983382783910001e+01 1.4381736256160000e+01 6.3280155669770002e+00
10 1 3.9152056825339998e+00 5.9363207497610002e+00 3.3768930699520001e+00
11 1 1.5925915388940000e+01 9.8018140655069992e+00 1.1451862661370001e+01
12 1 1.1598587775010001e+00 1.4521878895210000e+01 1.5522498918880000e+01
13 1 9.4429840548980000e+00 1.3989233898680000e+00 2.6135638683010001e+00
14 1 3.0747438560160001e+00 4.6162758476769996e+00 1.2447165515500000e+01
15 1 4.5136286175770000e+00 1.4307381855210000e+01 9.1086787210040008e+00
16 1 7.6255462304959998e-01 8.2144171561280004e+00 1.6002750505360002e+01
17 1 9.4458965865729994e+00 8.7259619456769997e+00 9.5889384701269997e-01
18 1 1.4552461213660000e+00 1.1852132674570001e+01 1.6341049301730000e+00
19 1 6.2349337937799998e+00 9.8776915939569996e+00 3.3301661264479998e+00
20 1 1.3597532324279999e+01 1.3298312803090001e+01 1.0901465525860001e+01
21 1 1.3921762432920000e+01 1.1696478070630000e+01 1.7137922149330000e+00
22 1 6.8841417452250004e+00 1.3326758213770001e+01 1.3327421166480001e+01
23 1 1.4117979551199999e+01 1.6023108972210000e+01 2.2212876714590002e+00
24 1 6.1690941915230004e+00 3.9283170168510000e+00 1.4555891402169999e+01
25 1 2.8588054041210000e+00 1.2272896649290001e+01 1.2955389723970001e+01
26 1 1.3667990002440000e+01 7.9054593015850001e+00 1.8914610803530001e+00
27 1 6.1701721563929999e+00 6.1447750214469998e+00 6.7794894866869999e+00
28 1 1.0686508941980000e+01 1.1872377509620000e+01 1.4918699525859999e+01
29 1 1.0982422802380000e+01 1.4386276347310000e+01 8.3836122040039995e-01
30 1 9.6782605704439995e+00 5.8802167580180003e+00 1.2882668767640000e+01
31 1 1.1917391611290000e+01 2.2498254901460002e+00 1.5407135496390000e+01
32 1 8.5002653684289999e+00 1.3459595305380001e+01 4.5596099510740000e+00
33 1 9.8013419736670002e+00 7.2005958691489997e+00 5.0428150763630004e+00
34 1 1.4063823355870000e+00 2.6225640381369999e+00 9.4712439213219994e+00
35 1 4.7163204573220003e+00 1.6116388867120000e+00 5.9887115875069998e+00
36 1 7.5558801408730003e-01 2.6921214906139999e+00 5.7973334687019999e+00
37 1 8.0714285768560003e+00 9.1424796712109995e+00 9.1218189288389997e+00
38 1 1.2249996614520001e+01 2.5493468728319999e+00 5.0258260421280001e+00
39 1 7.9185176290620003e+00 8.6764330710229998e-01 1.4379795226960001e+01
40 1 9.1701956178069999e+00 9.3787459983260000e+00 1.2903896703130000e+01
41 1 3.6654418593089999e+00 9.2482147201299991e+00 8.0569153553229995e+00
42 1 5.9467873979970003e+00 3.5676634382960000e+00 1.0289758582699999e+01
43 1 7.9739061366000001e+00 1.5791902747100000e+01 8.3492512771380003e+00
44 1 4.9474422808160003e+00 1.4162449484280000e+01 5.1668330152859996e+00
45 1 4.9653577908470004e+00 1.4541427021100000e+00 2.5496142449310000e+00
46 1 1.4562033690440000e+01 1.5968295550240001e+01 1.3836118242850000e+01
47 1 1.4765576623239999e+01 4.9007933013180001e+00 8.6841424602820005e+00
48 1 1.4457836043000000e+01 3.0652475329419998e-01 8.3839018166529993e+00
49 1 1.3751282245470000e+01 3.9233403122730000e+00 2.3439491370190000e+00
50 1 1.5955529987780000e+01 1.1172707211690000e+01 7.4980646440859999e+00
51 1 1.1442719997599999e+00 3.7898503165070001e+00 1.0294005660180000e-01
52 1 1.2467314087449999e+01 9.5304068243900009e+00 5.3688335094689998e+00
53 1 3.6953268937470001e+00 7.3467926890369994e-01 1.3163440385410000e+01
54 1 1.0993377683970000e+00 9.3191285407999995e+00 3.7815524711989998e+00
55 1 1.1551020856750000e+01 1.7700451478770001e+00 1.1438032081090000e+01
56 1 5.5743747496380003e+00 7.9298816191250001e+00 1.6019746869970000e+01
57 1 9.5681937636200001e+00 1.4263345376200000e+01 1.1654854560340000e+01
58 1 1.1052643214500000e+01 5.7837701763189999e+00 8.8798088784360001e+00
59 1 1.3031445610460000e+01 5.6467804925539999e+00 1.4786914844240000e+01
60 1 8.9774008314089997e+00 4.7741514691629998e+00 1.6999871194709999e+00
61 1 1.5123923434410001e+01 3.2511211211200002e+00 1.2480212736990000e+01
62 1 1.5389375433080000e+01 1.3877233559690000e+01 4.6149748245510001e+00
63 1 1.3819093319829999e+01 7.1462903740519996e+00 1.1345694980330000e+01
64 1 4.6745145724319999e+00 8.6497949574500002e+00 1.2518270065079999e+01
65 2 3.9826892518960002e+00 1.3866625533070000e+01 4.5459654986429998e-01
66 2 6.2486225333330001e+00 1.3255818413220000e+01 5.4030750168399999e-01
67 2 5.1852840553100004e+00 6.6794592558939998e+00 1.0201491654770001e+01
68 2 7.4763644023189997e+00 6.6164364436240000e+00 1.0511327016059999e+01
69 2 9.4618616707159997e-01 1.5189151508180000e+01 8.5403678157979996e+00
70 2 1.9141030421680001e+00 1.4320633623270000e+01 6.6253631290220003e+00
71 2 1.4355132128179999e+01 9.8227748664969994e+00 1.3713225077800001e+01
72 2 1.4539843537759999e+01 1.1921702983010000e+01 1.4731153458610001e+01
73 2 2.1236870967870001e+00 5.2135782120250003e+00 6.7638808650769997e+00
74 2 7.0006522165189999e-01 6.9923076712130001e+00 7.2341131301060004e+00
75 2 7.9217027130030004e+00 3.9086224775999998e+00 4.6893102372959996e+00
76 2 8.8966865710339995e+00 3.7622121946310001e+00 6.7918837759180004e+00
77 2 1.0775222893220000e+00 4.3226706222540001e-01 3.2610135056499998e+00
78 2 2.2069558017339999e+00 8.1388353358040000e-01 1.2169315096890001e+00
79 2 1.1351555809190000e+01 1.0103522912120001e+01 1.0808587406599999e+01
80 2 1.1874596196330000e+01 1.0310700622990000e+01 8.5317146705199995e+00
81 2 1.2431934385390001e+01 1.3895929308700000e+01 5.3690774243800004e+00
82 2 1.1449407150930000e+01 1.5056337596060001e+01 7.1460771255319999e+00
83 2 5.0583509597670000e+00 6.1518033078440002e+00 3.2730382178010000e+00
84 2 2.7928887792760002e+00 5.6561329586640001e+00 3.5189513723829999e+00
85 2 1.4960390533420000e+01 1.0264330065990000e+01 1.0945129371880000e+01
86 2 7.1107840928120003e-01 9.3778528642950008e+00 1.1873883451050000e+01
87 2 5.8844461937299997e-01 1.4318926891129999e+01 3.1461545014980002e-01
88 2 1.6952974348900001e+00 1.4666847529030001e+01 1.4489344749440001e+01
89 2 8.3253832354030006e+00 1.6200564486810001e+00 2.3165831361340001e+00
90 2 1.0574898931770001e+01 1.1775895599740001e+00 2.8227009277859998e+00
91 2 3.2386187574099998e+00 5.6756136774239998e+00 1.1940936226420000e+01
92 2 2.8815113426790000e+00 3.5557985905759999e+00 1.2890950466650001e+01
93 2 3.9443304339940002e+00 1.3274142370640000e+01 8.9856692682509998e+00
94 2 5.1840314928640003e+00 1.5304484456460001e+01 9.2044171094819998e+00
95 2 8.6895654727320004e-01 9.1003352957920001e+00 1.5269458188300000e+01
96 2 5.7914383025839999e-01 7.3266601753960003e+00 5.5040708610839995e-01
97 2 9.3229708813040002e+00 8.0491666090759999e+00 1.6237357190699999e+01
98 2 9.5795860854340003e+00 9.4983530441729993e+00 1.8818909732939999e+00
99 2 1.7364428074510001e+00 1.2266500521639999e+01 2.6923083908190000e+00
100 2 1.2437538801979999e+00 1.1423659209969999e+01 5.6642054415419996e-01
101 2 6.7193667761759999e+00 9.2820955493170008e+00 4.2471213468300002e+00
102 2 5.7804149247519998e+00 1.0384696524670000e+01 2.3751369934850000e+00
103 2 1.4585007342310000e+01 1.3220267120570000e+01 1.1549707422799999e+01
104 2 1.2551475726420000e+01 1.3370895899860001e+01 1.0372880927710000e+01
105 2 1.4611094738729999e+01 1.0816361407260001e+01 1.7760077203860001e+00
106 2 1.3226251264649999e+01 1.2630489481530001e+01 1.8114996614800001e+00
107 2 7.3544781836800004e+00 1.2256801282800000e+01 1.3530076442320000e+01
108 2 6.3510859662829997e+00 1.4399886214249999e+01 1.3244220904590000e+01
109 2 1.3314786207170000e+01 3.5977445095600002e-01 2.9399149395749999e+00
110 2 1.4889584904410000e+01 1.5423165401520000e+01 1.5710593223520000e+00
111 2 6.2910890071749996e+00 3.5285590135830001e+00 1.5603010116349999e+01
112 2 6.1148457473639999e+00 4.4110761770920002e+00 1.3483818420850000e+01
113 2 1.6948923755959999e+00 1.2372346986540000e+01 1.2964000694459999e+01
114 2 4.0343120850240002e+00 1.2249612966790000e+01 1.2799692535129999e+01
115 2 1.4142911290090000e+01 7.6019712070569998e+00 2.9156456965099999e+00
116 2 1.3140941139320001e+01 8.1420787458550006e+00 8.7673103127370000e-01
117 2 5.2800515742860004e+00 5.4141050081400000e+00 7.0901219774840003e+00
118 2 7.0736457169420000e+00 6.9072776720539997e+00 6.5118800568569997e+00
119 2 1.0312445524679999e+01 1.2868408609379999e+01 1.4471255693330001e+01
120 2 1.1153850828290000e+01 1.0982679923899999e+01 1.5564937129760001e+01
121 2 1.0188335029819999e+01 1.3684909785689999e+01 1.3378409338370001e+00
122 2 1.1728597530129999e+01 1.5121165226730000e+01 3.0154152248270000e-01
123 2 9.4787877859470004e+00 4.8483746745950000e+00 1.3390380660820000e+01
124 2 1.0013529479230000e+01 6.8731007738569998e+00 1.2360542450850000e+01
125 2 1.0807535492840000e+01 2.1351792297970000e+00 1.5714396732399999e+01
126 2 1.3039246291930001e+01 2.3054554670720000e+00 1.5100167416590001e+01
127 2 9.0609475960590000e+00 1.4452359382479999e+01 4.7902936094710000e+00
128 2 7.9136378617860004e+00 1.2482580511440000e+01 4.2901642067720003e+00
129 2 9.8474493349410004e+00 6.4840090388020002e+00 4.1162554796580002e+00
130 2 9.7413478244200000e+00 8.0569069794730002e+00 5.8185584422690004e+00
131 2 7.2154203698260000e-01 3.4137840285799999e+00 1.0024150358920000e+01
132 2 2.1944336093880001e+00 1.8358073643630000e+00 8.9998833982710007e+00
133 2 5.7032817976750003e+00 2.2129790468400001e+00 6.0664736263760002e+00
134 2 3.6880200361040001e+00 1.0939617640379999e+00 5.9191190487309999e+00
135 2 1.1886628403010000e+00 3.2200070441099999e+00 4.8515182874539997e+00
136 2 3.0114125808870001e-01 2.0881178625860000e+00 6.6897913743309996e+00
137 2 9.2343262299649993e+00 8.8516753796930008e+00 9.1758952743689992e+00
138 2 6.9386345169319998e+00 9.3640538908930004e+00 9.0102442060680001e+00
139 2 1.3131314917439999e+01 1.9818155168010001e+00 5.4768161265610003e+00
140 2 1.1452132439480000e+01 3.2811319811000002e+00 4.5425115194260002e+00
141 2 8.1317231525579992e+00 7.6308173778759994e-02 1.5241390923060001e+01
142 2 7.7041887622020004e+00 1.5994196574870001e+00 1.3462351501570000e+01
143 2 1.0178446452990000e+01 9.4024293478790000e+00 1.3469689294589999e+01
144 2 8.1197961310859998e+00 9.3801739901049999e+00 1.2400431027510001e+01
145 2 3.3697572699470002e+00 9.7948443383140003e+00 9.0386993588560003e+00
146 2 3.9094458816630002e+00 8.7003944153490007e+00 6.9994636761490003e+00
147 2 4.8473562787070001e+00 3.3420175116349999e+00 1.0577764247099999e+01
148 2 7.0795067087160000e+00 3.6899161394709998e+00 1.0048723766880000e+01
149 2 8.5925452310619992e+00 1.4801291219299999e+01 8.5143289517070002e+00
150 2 7.4777507195029997e+00 6.7970080250200005e-01 8.3104127438469995e+00
151 2 4.1775013716979998e+00 1.3652089268430000e+01 4.4249220707449997e+00
152 2 5.7110277000450003e+00 1.4543777565870000e+01 5.9741346190650004e+00
153 2 4.6061855351569996e+00 2.5530176534250000e+00 2.4207952510670001e+00
154 2 5.3338307893829997e+00 3.0940624213369999e-01 2.6531301136369998e+00
155 2 1.5256730383460001e+01 7.1025800102589998e-01 1.3816907035300000e+01
156 2 1.3829391599219999e+01 1.5090079268420000e+01 1.3859950555410000e+01
157 2 1.4362420289879999e+01 4.0728804846699997e+00 7.9840079488229998e+00
158 2 1.5226818797230001e+01 5.6646682775289996e+00 9.4043377911900006e+00
159 2 1.4891167254699999e+01 1.1218850579940001e+00 9.1014128702570005e+00
160 2 1.4078131566820000e+01 1.5563125329460000e+01 7.7850614591060001e+00
161 2 1.4562119621760001e+01 3.3176427877179999e+00 2.8752997703480001e+00
162 2 1.2877591898530000e+01 4.5192675598659999e+00 1.8174257068020001e+00
163 2 7.1615324407299996e-01 1.0465724729610001e+01 7.5074354050150003e+00
164 2 1.4930318947780000e+01 1.1773343526510001e+01 7.4429270348029997e+00
165 2 2.9297127248770000e-01 3.3908157542309998e+00 8.1730040737059995e-01
166 2 1.8856938163610000e+00 4.2274207121440002e+00 1.5506045182939999e+01
167 2 1.2269213302020001e+01 1.0409250642030001e+01 4.6362115588139998e+00
168 2 1.2678308798950001e+01 8.5385665223810001e+00 5.9673045841430001e+00
169 2 4.2423277786540003e+00 8.9515686282030005e-01 1.4213784127269999e+01
170 2 3.1653347089390000e+00 4.6557917203389998e-01 1.2115174442350000e+01
171 2 1.9353017207820000e+00 9.3281150972959992e+00 2.9701716308799999e+00
172 2 3.6522560655710001e-01 9.3310176859089999e+00 4.7259192728670003e+00
173 2 1.1353437872220001e+01 2.2107588063499999e+00 1.2475860992159999e+01
174 2 1.1592042357920000e+01 1.2973557528990001e+00 1.0370190935529999e+01
175 2 4.9838951439240002e+00 6.9860079344250003e+00 2.3555713788970001e-01
176 2 6.2789698593690000e+00 8.7553532808029999e+00 1.5660935464110000e+01
177 2 9.7334133149139994e+00 1.5323640768170000e+01 1.2141720656390000e+01
178 2 9.4229762889350006e+00 1.3204785687850000e+01 1.1182221921129999e+01
179 2 1.0376060868110001e+01 5.5206268402600003e+00 9.8168909826390003e+00
180 2 1.1745806526300001e+01 6.0776795623480000e+00 7.9989065606269998e+00
181 2 1.1887801697860001e+01 5.4476592380159996e+00 1.4973634581160001e+01
182 2 1.4120771109750001e+01 6.0000505281900001e+00 1.4561084162160000e+01
183 2 9.9569519629739993e+00 4.2088747276899996e+00 1.9544133692879999e+00
184 2 8.0278447826520001e+00 5.3987635713959996e+00 1.4470835232060000e+00
185 2 1.4040603775110000e+01 3.0558721304669998e+00 1.2054882175380000e+01
186 2 1.1566808706600000e-02 3.3598478573980000e+00 1.2914692764570001e+01
187 2 1.5730087549780000e+01 1.4909066459600000e+01 5.0074726028230003e+00
188 2 1.5152241151589999e+01 1.2876353872539999e+01 4.0649599493490003e+00
189 2 1.4884902911859999e+01 7.5462997481800000e+00 1.1598617457230000e+01
190 2 1.2752023249160001e+01 6.6927091846059996e+00 1.1076097874469999e+01
191 2 5.0478200749979996e+00 9.2511540557499998e+00 1.1599332266039999e+01
192 2 4.3075979675290004e+00 7.9991845520949996e+00 1.3442995204540001e+01

Velocities

1 -7.7279640792180002e+00 -1.9726330934709999e+00 -7.7546864200660004e-01
2 4.2287743439609997e+00 4.0941915888080000e+00 -8.7385919476079998e-01
3 2.6738431288480000e+00 5.4999787980140002e+00 -1.3677071598210000e+00
4 -7.6701686482120000e+00 2.0255904270379999e+00 -6.6283688387549997e+00
5 7.3956084462260003e+00 3.3131231354819999e+00 -1.3297631005830000e+00
6 1.5512638006870001e+00 4.3981462023239998e-01 -1.4072344270370001e+00
7 -5.2078946378159996e+00 6.2591723938690000e+00 -6.8674658225250003e+00
8 -2.6730180729069999e+00 -5.8050806860799997e-01 -4.0844001572180000e+00
9 -1.2382956981530000e+00 5.8229010640450003e+00 -4.1981144561520001e+00
10 -5.4046540991510001e+00 2.7559417463979998e+00 -4.3324007153719997e+00
11 -6.7829366679719998e+00 6.5274608836740002e+00 -2.0997865697310001e+00
12 -1.2754597291120000e+00 7.9123948348509998e+00 1.0490432215469999e+01
13 -4.8342183957209999e+00 -2.5812365919959999e+00 -5.9166168390770002e+00
14 1.0183866473100000e+01 2.1108466034730000e+00 3.1193636947350001e+00
15 3.1390714242739999e+00 -3.9767991793719998e-01 -6.9671109660959996e+00
16 1.2999120164430000e+01 1.0575809895820001e+00 5.3466935275310004e+00
17 5.4642114052470001e+00 -9.4755390455149993e+00 3.9269246605300001e+00
18 -1.9893237451900001e+00 -6.5590743539969996e+00 3.3695133492339999e+00
19 4.0506093520560000e+00 7.3622930992010005e-01 -4.9352620956510002e-01
20 -1.3254036492790000e+00 1.6030739249910000e+00 -2.4327668151989998e+00
21 -6.6849960120149998e-01 -7.0862651928189999e+00 5.8305854929669998e+00
22 -4.0494352878650002e+00 -6.8123168000370002e+00 5.7882987178779999e-01
23 7.8546766953229996e+00 -1.0528690878190000e+01 2.5390890557030001e+00
24 -1.0392759155400000e+01 -9.4012512431619992e+00 -3.7286326442369999e+00
25 -2.6857878782930000e+00 -3.5565768134820003e-01 -2.8324229395830001e+00
26 -4.8035068617950003e+00 4.0647717734380002e+00 3.3952751350189998e+00
27 3.5531579362280001e+00 -7.7445786628450000e+00 -4.2848806331280000e+00
28 3.3659967203050001e+00 -5.9678981275040002e+00 -6.5509120752200003e+00
29 1.0500492470979999e+01 -5.6325489242180005e-01 5.5124333663989997e+00
30 -3.7157615892260001e+00 -2.3431294208789999e+00 5.6247856303360004e+00
31 -2.8790507896199999e+00 6.0983787204229998e+00 2.1528617579909999e+00
32 3.2724980317040000e+00 3.0390077269959997e-01 1.9494845152219999e+00
33 -5.5049891525390002e+00 -8.3215415261299999e+00 5.3940016968049997e+00
34 1.0473929123390000e+00 3.6435230898780002e+00 3.7213011409179999e+00
35 -8.5661099139610002e+00 6.7966021526070000e+00 -1.1339966742540000e+00
36 5.7344034688090000e+00 -1.6153489812220001e+00 -3.8234608174420002e+00
37 3.9829132358480002e+00 -7.0152016078660004e+00 3.0073456056670000e+00
38 -6.2226194265980004e+00 3.0209188347449998e+00 -3.9191192259180001e+00
39 -3.2994946078459999e+00 2.4621865272099999e-01 -4.7943188165970003e+00
40 7.0101607313189995e-01 -1.1841632719710000e-01 -1.5307796416120001e+00
41 -6.5182322865510001e+00 4.4987931533910004e+00 -8.6730261583610009e+00
42 -2.7260377230790001e+00 -7.2522814040099997e+00 -1.0473537961000000e+01
43 5.1480451857359997e+00 6.5798520863279997e+00 -4.6865833142330002e+00
44 4.9742578967329996e+00 -2.0031977557789999e+00 -6.0043772490040004e+00
45 -9.1506912374949998e+00 -1.8831453911370000e+00 2.1337390903319999e+00
46 -3.9926412927579999e+00 -4.2996924539080000e-01 -2.9062019734860001e-01
47 1.8161212828300000e+00 5.0714917679560001e-01 6.7070564522350002e+00
48 5.9639967021069995e-01 -1.7142906093540000e-01 3.0127271578410002e+00
49 1.3970929877250000e+00 4.6186042595570003e+00 -1.8840174179489999e+00
50 4.4271640781589996e+00 2.2442820967940000e+00 -1.1775558029330000e+00
51 -7.0005668140699999e+00 1.5739577572780000e+01 5.9592641716679999e+00
52 1.1812242943589999e+00 3.0356391225090000e+00 4.9518688895969998e-01
53 1.6319701859889999e+00 1.8285663763380000e+00 -4.0426876708860000e+00
54 2.9409259954300002e+00 8.7654811486900002e+00 -2.4007516389010002e+00
55 1.3488143812650000e+00 3.8886581052650002e+00 -2.4772805391469999e+00
56 4.0133482175899999e+00 4.4724650543170003e-01 3.9756692102120001e+00
57 3.2319776282319999e+00 -2.5683252566660002e+00 -4.5197035758980002e+00
58 -2.1354455275880002e+00 6.3364813310330002e+00 -6.6763117305080000e+00
59 -4.0066796485850000e+00 -4.8799458823800004e+00 -9.9657062873650002e+00
60 5.1631674014210001e+00 -7.0483150742370002e+00 -9.2969220082229997e-01
61 -7.1079757965810000e+00 -6.9274167232230000e-01 -1.2277955167069999e+01
62 2.7929853301040000e+00 -1.3377790526650000e+00 5.6099863056719999e+00
63 7.9593609801790004e+00 -2.0235030474490001e+00 7.5877450953179997e+00
64 -3.2772414164260000e+00 1.1713914765739999e+00 -6.4925773336730002e+00
65 1.4500704589560001e+00 -2.1336001473009998e+00 -3.0913350655970002e+00
66 1.0856522396099999e+00 -1.5683648778260000e+00 -6.4856864072470000e-01
67 -1.4883284760400000e+00 5.4454311834189995e-01 2.4452177761780001e+00
68 4.1098358398680004e+00 4.2444845438770002e+00 -4.5563016946210000e-01
69 1.2545985159569999e+00 -4.7087425975830000e+00 1.1917782905830001e+00
70 5.4599266792909997e+00 -2.2902922874530001e+00 -4.8219635713659997e-01
71 -6.7757957832180002e+00 7.8212521791449996e+00 -1.8864678561260000e+00
72 6.1276803729319995e-01 1.6573183581240001e+00 8.8089272958179998e-01
73 6.1741905865020001e+00 7.1926383692889995e-01 -7.6297476295959998e-01
74 -2.3670799731579999e+00 -1.4946669730740001e+00 2.2012203717959999e+00
75 -6.8801780404670003e+00 2.2699512487750000e+00 -4.3018087714729996e+00
76 6.2725597608500001e+00 1.9254482422960001e-03 9.9444140032030006e+00
77 -5.3446164557999998e+00 4.2310777309849996e+00 -2.2645225901049999e+00
78 6.2070549413930003e+00 4.1623058456019999e+00 -1.0833673183079999e+00
79 3.8700100326419999e+00 5.7680634308279997e+00 7.0908719736089998e-01
80 -5.8359617112460000e+00 1.3891896856120001e+00 -3.0760300471440001e+00
81 -6.3302897085279997e-01 5.2277767498629997e+00 -3.7863744461400000e+00
82 2.0201619087970002e+00 4.5786612744650004e+00 5.2992770547580004e-01
83 -9.1123095004230006e+00 5.4339000774670003e+00 1.3982434775060000e+00
84 -5.4861928012250001e+00 -4.0512365145649998e+00 6.5662531583729997e+00
85 3.7377052023629997e-01 -5.3088853847379998e+00 -5.8615655343619997e+00
86 -5.6859304798160002e+00 4.3822050420069996e+00 3.7467317868809999e+00
87 2.0281892831660001e-02 5.3633600387260003e+00 -3.9250640823389999e+00
88 -3.4265304270570001e+00 -1.0134385258640000e+01 -1.8010173698040000e+00
89 5.0568644443229998e+00 -4.4051551234679998e-01 3.7872178421700000e+00
90 4.6775880144690003e+00 3.8503259711830001e-01 -2.6288464887049998e+00
91 -1.2816167535570000e+00 8.1844307613879996e-01 1.4256058572729999e+00
92 -5.7436875470200004e+00 -1.8496337123260000e+00 9.7288961783410000e-01
93 -8.6708041544729997e-01 -1.0159607003819999e+00 1.5390171000949999e+00
94 -6.4169176304630005e-01 -1.0896135093360000e+00 1.4599592540090001e+00
95 -3.5488578965060000e+00 -2.8588676580039998e+00 -1.3494398203569999e+00
96 -1.0532100585480000e+00 1.7637502748360001e+00 -1.4634354055650001e+00
97 -3.0928743887810001e-01 -9.2815458201339993e+00 6.7302351825680002e+00
98 1.0857031969819999e+00 6.2894788774520002e-03 -3.6877994223749999e+00
99 3.7213164881870000e+00 3.8963986321530002e+00 3.8775546395370002e+00
100 -4.0596525908679997e+00 1.2616563051700000e+00 4.5263421418989997e+00
101 -3.3796670886269999e+00 -2.1528304128030000e+00 3.2600603248039999e+00
102 5.6626474697650000e+00 -5.5809239982919996e+00 4.0078926063909996e+00
103 1.9445131844850001e+00 9.5775673669960004e-01 7.0846148484810001e-01
104 -3.8799479446129999e+00 -4.7216801371840003e+00 -1.7811747167050000e+00
105 -3.9759682057690000e+00 2.8017322718280002e-01 -4.9634758770399996e+00
106 5.4289828890349998e+00 4.3389820285400003e+00 -7.9380229112679999e+00
107 6.4675797949489997e+00 2.8839358143600000e+00 -2.1914769770959999e+00
108 1.2626461145420001e-01 1.7439132116589999e+00 3.4383507294850002e+00
109 -7.3754384694260000e-01 2.7778767257860002e+00 -4.3993495621219996e+00
110 -4.6886386850340002e-02 -7.5619955116010003e+00 -2.2720131185330001e+00
111 -4.4078646801490001e-01 4.9321308806250004e+00 -1.0394940637770000e+00
112 -2.8134317281720000e+00 4.9927158050050002e-01 5.0011526382650002e+00
113 -1.8172208170130000e+00 -1.3365780561870000e+00 -2.2452579137990001e+00
114 3.6270508559789998e+00 -2.0320004064160000e+00 2.5888439194720001e+00
115 1.4203014968230001e+00 -2.4720266844780001e+00 -1.1664781100640000e+00
116 2.1473787938059998e+00 -4.6345744903300001e-01 -6.7713395691590001e+00
117 8.8537747093500005e+00 -7.7834259043099996e+00 -7.9834512666199997e-01
118 -1.9916463845350001e+00 -6.5202030178629999e-01 7.8615815365480000e+00
119 4.7918084643169996e+00 -5.5828144457300000e-01 -7.9943601771570005e-01
120 4.3210598208450000e+00 -6.1677563504980002e+00 7.4376704645049996e+00
121 4.6081049716119997e+00 -2.4196549027640000e+00 -1.2551632795350001e+00
122 1.1307333979040000e+00 3.5043032231950000e+00 -5.9426799944209998e+00
123 6.0101540230869999e+00 -4.6474687635259997e+00 -6.2516159215540001e-01
124 3.2501080507600002e+00 -5.6249394630350000e+00 3.3307176218020000e+00
125 4.6134019338470003e+00 -7.8503566099019997e+00 5.4076387755519999e+00
126 4.3372355312530004e+00 6.2514133684089996e+00 1.8358205563829999e+00
127 9.7642843431960002e-01 5.9192038150380002e+00 3.8337349711809998e+00
128 -2.2633919466760002e+00 -3.1776740843920002e+00 3.9119986620520000e+00
129 1.9574556017470000e+00 4.5191467614840004e+00 6.2386471716900005e-01
130 1.0127351929799999e+00 4.3142972424800003e+00 3.9939310107970001e+00
131 -6.3108357508320001e+00 -1.7148083675679999e+00 2.0732020261030000e+00
132 -5.2018936800690003e+00 5.1066766046690004e+00 -4.5914328492390002e+00
133 -6.6779554458930002e-01 -4.3955349938949997e+00 1.8662449605730000e+00
134 5.9676928976549997e+00 -1.1007548301329999e+00 1.3348089270819999e+01
135 -5.5648365755510003e+00 -1.6425127087720000e+00 -4.8604765917290003e+00
136 3.1531814414319999e+00 -4.4735382921219999e+00 5.7209705268180000e-01
137 -2.1775815172650002e+00 3.2780654785909999e+00 -2.7846345710759999e+00
138 5.1991549686659999e+00 4.5287409631289997e+00 6.2525374544650003e-01
139 3.6455372260679999e+00 9.1724708343010004e+00 3.5647372698119999e+00
140 -1.2138190465250001e+00 -5.7741297499200002e+00 2.8815731425840001e+00
141 -4.2513950032579997e+00 4.6044927344540003e+00 -3.0262924563779998e-02
142 -7.3634648319959997e+00 1.7339262299000000e+00 3.1499367939829997e-01
143 -2.1720516470460001e+00 2.4096949603500000e+00 -1.7696713162409999e-01
144 -2.9180428635300002e+00 -2.6287659954609999e+00 1.5757381994570001e+00
145 -1.7687698810270001e+00 -1.4196835273270001e+00 -3.1185369486650001e+00
146 5.0317619827500000e+00 -1.4370643992550001e+00 -3.1063020228229998e+00
147 3.7978284938279999e-01 8.7265738852950003e-01 1.4850467197399999e+00
148 8.0071332421329995e+00 5.8974291492450004e-01 1.2170849471189999e+00
149 5.1187677277860000e-01 -3.5287356800400000e+00 3.0986214142269999e+00
150 1.3368171077669999e-01 1.6877012016890001e+00 4.0209672556560001e+00
151 1.3891504856710000e+00 -3.1101578921400002e+00 4.2035603894999998e+00
152 4.2135742437410002e+00 -2.0261680677300001e-01 1.9730337539480001e+00
153 2.3794063556660001e+00 -3.3030374602019998e+00 2.1077536697160002e+00
154 4.9850791936879997e+00 -2.0452650503620000e+00 4.7459124109650004e+00
155 -7.4710861600529999e+00 6.2820713256199996e+00 7.6498637167329997e-01
156 2.8504428151110002e+00 -4.2043719915490003e+00 -5.6298954974589999e-01
157 2.1156309732469998e+00 -3.5748052496920000e+00 -2.9851381883200001e+00
158 6.5943534568900004e+00 -9.1197383360360007e+00 1.1680947176150001e+00
159 -7.5519122365630000e+00 -5.3434759809639996e+00 -1.4184554394469999e+00
160 -5.6083430442409998e-01 4.5998664947009997e+00 -3.0769975273160002e+00
161 -1.6094004282779999e+00 1.8142658434940000e+00 -1.2712985857150001e+00
162 -3.3207992233730002e+00 -5.2701853272169998e+00 -3.4019961697040002e+00
163 -2.5665588482230000e+00 -5.2178345579040002e+00 -2.3709003582629999e+00
164 -2.7609868523909999e+00 -6.0462476047119997e+00 -4.4621839359950002e+00
165 -4.6528768519870001e-01 -2.6457987432059999e+00 3.8598013049200000e+00
166 -4.7425397230559998e+00 -1.2930959512069999e+00 5.3905103665110001e+00
167 4.6535115011060002e-01 1.9243207242210001e+00 8.5369985229659995e-01
168 1.0200041280750000e-01 2.4553296540270000e+00 4.9875272130410000e+00
169 7.9394112186659997e+00 -1.2317573413150000e+00 -2.9454507274180002e+00
170 1.8876687181450000e-03 -1.4788355863170000e+00 7.2346102212080003e+00
171 -5.3825404845509999e+00 4.2896169187319998e-02 4.8666536213250000e-01
172 -3.4151452869810002e+00 1.7592165863110001e+00 -4.4684022315379996e+00
173 8.8259093879460004e-01 2.2995456091749999e+00 -1.0876317333990000e+00
174 -1.8697339951770000e+00 1.5928179505290001e+00 1.9531223623309999e+00
175 -1.0848328666040000e+01 1.8082177709809999e+00 -1.5824125608890001e+00
176 -8.0248952713390000e+00 -4.7656617556090000e+00 3.7928359685770002e-01
177 -5.8697956505919997e+00 2.5135847426160001e+00 -3.9331226811739999e+00
178 -5.4940187846019999e+00 -4.5805321949470001e-01 -1.8861981058590001e+00
179 -1.4125655136190001e+00 -1.3193622196470001e-01 1.2980085698599999e+00
180 1.6317745648540001e+00 6.7132161341780003e+00 3.4725832287929999e+00
181 2.6548000239789999e+00 -1.0791183975359999e+00 1.4559186048949999e+00
182 1.6084308510450001e+00 -1.9542084654380001e+00 -3.0673589015000000e+00
183 4.8799515709990002e+00 6.4150502352650003e+00 -5.1617886679089997e+00
184 -7.7981248194230002e+00 -2.0329580518790000e+00 2.5320757259220001e+00
185 5.8481781658819996e+00 3.2158389144710000e+00 -2.6436952018570001e+00
186 1.3610265672860000e+00 1.8586208598400000e-01 3.2668310357960002e+00
187 -1.8594300126679999e+00 4.5764875205330000e+00 5.9658700351040004e+00
188 2.2092194773329998e+00 1.1745319822800000e+00 -2.7729584561389999e+00
189 -4.1271385947240002e-01 5.5736957369729998e+00 -3.0933796182790001e+00
190 -5.6692979198500004e-01 -2.1249616168230001e+00 -4.1096401785580001e+00
191 5.7394657512240004e+00 -2.4800851037889999e+00 4.3110386010850004e+00
192 8.6335894927570001e-01 2.1812672066049998e+00 -5.8401848806500001e-01
