LAMMPS data file extracted from NVT dump, timestep 180000, units metal

192 atoms
2 atom types

0.0000000000000000e+00 1.6195563468200000e+01 xlo xhi
0.0000000000000000e+00 1.6195563468200000e+01 ylo yhi
0.0000000000000000e+00 1.6195563468200000e+01 zlo zhi

Masses

1 12.00000000
2 16.00000000

Atoms # atomic

1 1 3.9813376037940000e+00 1.4106299897890000e+01 3.6645038341329998e+00
2 1 6.4628601807430002e+00 2.5691237826830000e+00 1.3091487889380000e+01
3 1 1.1850363578780001e+00 9.4263391357740005e+00 7.5924954366380000e+00
4 1 2.6024947696040002e+00 6.5377148628219999e+00 1.2590233005010001e+00
5 1 1.0372055849530000e+01 2.2578379115409999e+00 3.0158073924009998e+00
6 1 2.2926986659850002e+00 1.5819456538330000e+01 1.5397761091470000e+01
7 1 1.5481902154209999e+01 5.4470902352920003e+00 8.8116467539470005e+00
8 1 3.5035065912809998e-01 1.2214944986190000e+01 1.4021733378710000e+01
9 1 1.2776107406190000e+01 1.6962721851130000e-01 3.4263729469960003e-01
10 1 1.5933294085069999e+01 1.5569076193330000e+01 7.4675941827240004e+00
11 1 3.1078482426470000e+00 3.5244335679629999e+00 1.4627052643280001e+01
12 1 8.3180787005720003e+00 1.3910952446590001e+01 6.4484188970730001e+00
13 1 1.3790497168620000e+01 1.0512459510510000e+01 5.0643262522769996e+00
14 1 1.4110697662739999e-01 4.1268301984329998e+00 1.2761562296530000e+01
15 1 1.1892059630060000e+01 1.2384671680329999e+01 7.0594073793480003e+00
16 1 7.8979552372550001e+00 1.2395644954520000e+01 2.5652993476210001e-01
17 1 1.4312291039300000e+01 7.2568169747019997e+00 1.1865354488050000e+01
18 1 1.0022630901590000e+01 9.1091487665340001e+00 2.3266646951200001e-01
19 1 1.0872806051530000e+01 7.0441102257560004e+00 5.1201449662389997e+00
20 1 7.3941423296929996e+00 9.1595313415239996e+00 5.2289703234609997e+00
21 1 1.2696679122920000e+00 9.0739531432130001e+00 3.7476374853499999e+00
22 1 6.2511370094199998e+00 1.5692397861450001e+01 1.7389968597240000e+00
23 1 1.5832698201920000e+01 1.4386785490759999e+01 2.8400872905329999e+00
24 1 4.0293173847460002e+00 4.1164832696889997e+00 1.0329866874169999e+01
25 1 4.8831928324289997e+00 9.1227133563230005e+00 1.0149188048790001e+00
26 1 1.0096973277969999e+01 7.6930888874500001e+00 1.3076596987560000e+01
27 1 6.2461579641459997e+00 4.8748412270700001e+00 4.0592684600200002e+00
28 1 5.7439141314690003e+00 6.0917775453029999e-01 6.2419235763350001e+00
29 1 1.3383644165170001e+01 1.2873580191200000e+01 1.0090121643459999e+00
30 1 1.9018817939729999e+00 8.2146913725099999e+00 1.3849393695230001e+01
31 1 9.3201311878330007e+00 1.4586912469650001e+01 3.3278121097800000e+00
32 1 1.1751452843879999e+01 4.1493286386190000e+00 1.3955887182750001e+01
33 1 5.7016771987019998e+00 6.7536394020559998e+00 1.2855273368250000e+01
34 1 1.3832319887970000e+01 4.4960521250690000e-02 4.8938239597289996e+00
35 1 1.2376822690600000e+00 2.0773447552239999e+00 2.2013608854659998e+00
36 1 3.7883021142340001e-01 1.2350383311110001e+01 6.3188117722149997e+00
37 1 1.2126733220420000e+01 1.5878315968940001e+01 9.7202585065570002e+00
38 1 7.0704676767240002e+00 3.7378260806829999e+00 5.8433674882190001e-01
39 1 1.0486636467789999e+01 1.2291891798420000e+01 1.2569305515880000e+01
40 1 7.8512828167060000e+00 1.5261815456300001e+01 1.0088451877430000e+01
41 1 1.4534267439430000e+01 7.2255879423399998e+00 3.5968194460850000e+00
42 1 2.8942684237559999e+00 9.5886418943230005e+00 1.0436266685340000e+01
43 1 6.8230464221789999e+00 1.0622266782020001e+01 8.8463340041490000e+00
44 1 3.8773131197980000e+00 1.3066047844800000e+01 1.3241963317570001e+01
45 1 1.5433375516360000e+01 4.2848105418670004e+00 2.3785578747940000e-01
46 1 1.5015289680480000e+01 8.9994577682330004e+00 1.9987662620780000e-01
47 1 3.3549162278139999e+00 6.1916849874059998e-01 1.1072069070290000e+01
48 1 2.2323182170320002e+00 3.7435286897059998e+00 5.6186873748819997e+00
49 1 1.1228894887410000e+01 5.2025424863470002e+00 1.1967584373419999e+00
50 1 1.0396759496950001e+01 8.6346062580179996e+00 9.0294744900749997e+00
51 1 2.1236845840449998e+00 1.1813358972170001e+01 1.3740195886780000e+00
52 1 8.4371671335500000e+00 4.9230839815219998e+00 7.2721494945309999e+00
53 1 4.1080811885450004e+00 6.3297227939739997e+00 7.2821433279640004e+00
54 1 1.3104600311110000e+01 1.4471210987879999e+01 1.3596176410500000e+01
55 1 6.8960138458809999e+00 1.5347892981830000e+01 1.4622742154570000e+01
56 1 1.5187500446100000e+01 6.0181013803159999e-01 1.2049242750379999e+01
57 1 9.9538374958529996e+00 9.3827537776329994e-01 1.3092249175219999e+01
58 1 5.9921389373449996e-01 1.3594121792719999e+01 1.0459585961240000e+01
59 1 1.0585965470270001e+01 4.5600060047610000e+00 1.0327006479080000e+01
60 1 9.8708603734700002e+00 1.6118776347060000e+00 6.3412667451370002e+00
61 1 7.2915549212290003e+00 1.0532009459750000e+01 1.2998472351560000e+01
62 1 1.3607486407990001e+01 3.4100723225079999e+00 5.3589327389949997e+00
63 1 1.3718506412909999e+01 1.1034028127290000e+01 1.0652868597130000e+01
64 1 3.9286458550110002e+00 1.3028846222409999e+01 8.6680510301839995e+00
65 2 4.7989726048060000e+00 1.3265579047259999e+01 3.5723481653609999e+00
66 2 3.1448797794369998e+00 1.4918027064129999e+01 3.6207452063960002e+00
67 2 7.4626916370450003e+00 3.2042786738940001e+00 1.3214688748040000e+01
68 2 5.5124989426250002e+00 1.8535335755560001e+00 1.2916607318690000e+01
69 2 2.2472105701670000e-01 1.0105479201470001e+01 7.7410782363099999e+00
70 2 2.1471304873140000e+00 8.8086124666799996e+00 7.4610898419370004e+00
71 2 2.2840451476650001e+00 6.0912176642139997e+00 2.3272300663259999e+00
72 2 2.8752997816789998e+00 6.9256164998449998e+00 1.6621909126500001e-01
73 2 9.3584404421350005e+00 2.4456239107759998e+00 3.5727065190979999e+00
74 2 1.1374992079980000e+01 1.8630076445060000e+00 2.4989902939970001e+00
75 2 1.3156400051099999e+00 1.6288574537479999e+01 1.5020787237660000e+01
76 2 3.3435288427060001e+00 1.5347137751589999e+01 1.5686115076480000e+01
77 2 1.5370427382290000e+01 6.6062327981940001e+00 8.9228633764689995e+00
78 2 1.5583825228649999e+01 4.2793824387310000e+00 8.5781103685089999e+00
79 2 1.5952747545319999e+01 1.1227791523990000e+01 1.4139013338540000e+01
80 2 9.4332706349850004e-01 1.3222033891240001e+01 1.3817213937700000e+01
81 2 1.3619847461530000e+01 9.1520134128920003e-02 1.1316425111190000e+00
82 2 1.1865593426069999e+01 3.0302088670130001e-01 1.5835091118290000e+01
83 2 1.4844952400310000e+01 1.5570816007190000e+01 7.8739554867589998e+00
84 2 8.2974929948179998e-01 1.5739255579680000e+01 7.1042324359910003e+00
85 2 3.7207966416420000e+00 4.2487649431090002e+00 1.3914709148080000e+01
86 2 2.4326789719469999e+00 2.9169669018579998e+00 1.5373036308390001e+01
87 2 7.3439248104499999e+00 1.3320108710500000e+01 6.7138282750140004e+00
88 2 9.2844368164550009e+00 1.4530051308259999e+01 6.2165489464019998e+00
89 2 1.3816631141400000e+01 9.6175955662590003e+00 5.8197854201660002e+00
90 2 1.3788965721229999e+01 1.1417773726069999e+01 4.3351562823250003e+00
91 2 1.6090463209199999e+01 3.9479937314870002e+00 1.1647159101940000e+01
92 2 2.5787872735139999e-01 4.3580052503619999e+00 1.3902083253070000e+01
93 2 1.2632915720360000e+01 1.3179804953860000e+01 7.5245187800429996e+00
94 2 1.1079769254140000e+01 1.1755813604780000e+01 6.4977867351020002e+00
95 2 9.0221559895799999e+00 1.2648447244490001e+01 1.6170633038580000e+01
96 2 6.8014777781340001e+00 1.2188839124179999e+01 5.0084202165820002e-01
97 2 1.3700602180390000e+01 7.7661476299609999e+00 1.1053889790680000e+01
98 2 1.5048570110040000e+01 6.7272425847840003e+00 1.2638436284770000e+01
99 2 9.5746221810109997e+00 8.6174906429400000e+00 1.1983668960280001e+00
100 2 1.0443096550980000e+01 9.6452358356310004e+00 1.5515615340549999e+01
101 2 1.0588498225990000e+01 7.0978278703050002e+00 3.9785342566800002e+00
102 2 1.1264177461059999e+01 6.9813823708839999e+00 6.2201469117460002e+00
103 2 6.3819954265880003e+00 8.7441316656510004e+00 5.6385154158740001e+00
104 2 8.4142442567169997e+00 9.5409823742230007e+00 4.8297024936759998e+00
105 2 2.2314112535040000e+00 8.7124717835999999e+00 4.3035054998340003e+00
106 2 2.8419752534679998e-01 9.4134370946099999e+00 3.2519167838229999e+00
107 2 7.1630826946899999e+00 1.5084248260450000e+01 1.2861033447220001e+00
108 2 5.2429823367620001e+00 8.0777250338080003e-02 2.0469621046430002e+00
109 2 2.4757615447000000e-01 1.4847627432390000e+01 1.9426497820610000e+00
110 2 1.5372488412130000e+01 1.3967110599400000e+01 3.8535507061490000e+00
111 2 5.1038339970140001e+00 3.6766847669609999e+00 1.0429392690769999e+01
112 2 3.0950549462160000e+00 4.7890752829240002e+00 1.0296023980759999e+01
113 2 4.9854819712909997e+00 8.6006327300100001e+00 2.0668274788790000e+00
114 2 4.8011251062279996e+00 9.7293009276810007e+00 -6.9722709200369997e-03
115 2 1.0110820506230001e+01 8.5874591826290008e+00 1.2284540566020000e+01
116 2 1.0041410915440000e+01 6.8283769900299998e+00 1.3834656654220000e+01
117 2 6.5585886747390001e+00 6.0191763787500001e+00 4.1163106101749998e+00
118 2 5.9890360868380004e+00 3.7378004467010002e+00 4.0461964077720003e+00
119 2 6.2518618198100002e+00 1.6045380126920001e+01 5.5379180939610002e+00
120 2 5.2635570971540000e+00 1.3407155909130000e+00 7.0458331403220003e+00
121 2 1.4474753615459999e+01 1.2882222127410000e+01 7.2256772563560001e-01
122 2 1.2285335668060000e+01 1.3021360440490000e+01 1.3897414385110001e+00
123 2 1.6201024751960000e+00 7.1562333494650003e+00 1.3495212149020000e+01
124 2 2.1080817589690000e+00 9.2547377202789995e+00 1.4335912989830000e+01
125 2 9.9435016137140000e+00 1.5476142946670000e+01 2.8761956106300000e+00
126 2 8.7465509866239994e+00 1.3675184915910000e+01 3.7407624482910000e+00
127 2 1.0842388036030000e+01 3.8006580664489999e+00 1.4637218126070000e+01
128 2 1.2578836729720001e+01 4.4712377783169996e+00 1.3189536757660001e+01
129 2 6.5280644574149997e+00 6.1289483880770002e+00 1.3387743621209999e+01
130 2 4.8621551078329999e+00 7.3982925962390000e+00 1.2385803854680001e+01
131 2 1.4864270873510000e+01 5.1888183492579998e-01 4.6484723852869996e+00
132 2 1.2824643460650000e+01 1.5708083067480000e+01 5.1157633953739996e+00
133 2 2.0926850344060002e+00 1.3086880186790000e+00 1.8846415561240000e+00
134 2 4.2924462141280001e-01 2.8599647116620002e+00 2.4642931225720002e+00
135 2 1.2085802408880000e+00 1.1989446262670000e+01 5.5984211222319997e+00
136 2 1.5743355668100000e+01 1.2728715129750000e+01 7.0660661241830001e+00
137 2 1.2185173142729999e+01 1.4878238108980000e+01 1.0348891018940000e+01
138 2 1.2102963564590000e+01 6.6728152302690003e-01 9.0523258016139998e+00
139 2 6.4257414881640003e+00 4.7149986954500003e+00 6.8144590461700005e-01
140 2 7.6292268860560002e+00 2.7152878764759998e+00 4.4424033149429998e-01
141 2 9.3971891617000001e+00 1.2544348241160000e+01 1.2240322745940000e+01
142 2 1.1575501292349999e+01 1.2051434973030000e+01 1.2848734740470000e+01
143 2 8.2384801905909999e+00 1.5216149464450000e+01 8.9889260858700002e+00
144 2 7.4457028051720000e+00 1.5459033334300001e+01 1.1179722008800001e+01
145 2 1.5119614198710000e+01 6.5334977743199998e+00 4.3455309948199998e+00
146 2 1.3884455735350000e+01 7.8212999665309999e+00 2.7862857691460001e+00
147 2 3.0125025866200001e+00 8.4542446894009995e+00 1.0061591940490000e+01
148 2 2.8633811005549998e+00 1.0696669469630001e+01 1.0797263936800000e+01
149 2 5.7052381352800001e+00 1.0349601290060001e+01 8.6576178916819995e+00
150 2 7.9139917058059996e+00 1.1038561932080000e+01 8.9968765360800003e+00
151 2 4.0429451311030000e+00 1.2028352085440000e+01 1.3757520886900000e+01
152 2 3.6149473180210001e+00 1.4085253337470000e+01 1.2658609978219999e+01
153 2 1.4651715117409999e+01 3.5299036040870000e+00 1.5962807885660000e+01
154 2 1.6224807044439999e+01 5.0075737059829999e+00 6.8149447879309999e-01
155 2 1.5892841487820000e+01 8.2805565901949993e+00 9.9246739493259999e-03
156 2 1.4094537693510000e+01 9.7104131932360005e+00 3.3518201255980001e-01
157 2 2.6087475685419999e+00 7.6105538807689999e-01 1.1969658383660001e+01
158 2 4.1087002748639998e+00 4.6471640900180000e-01 1.0189125009790001e+01
159 2 3.2817159924869999e+00 3.2255604416230002e+00 5.7611732865879999e+00
160 2 1.1525446279460001e+00 4.1508296655720001e+00 5.4408226518090004e+00
161 2 1.2009452198170001e+01 5.4645912557910004e+00 3.4195952910029997e-01
162 2 1.0487880911760000e+01 4.9129912494849997e+00 2.0656755035800001e+00
163 2 1.1272323067100000e+01 9.4046538585969994e+00 8.9779375221169992e+00
164 2 9.5544421876189993e+00 7.8060159395650004e+00 8.9683110427460004e+00
165 2 2.6160042406900001e+00 1.1647828717940000e+01 2.4491933368950001e+00
166 2 1.6953665479869999e+00 1.2002900641580000e+01 3.1333702535669999e-01
167 2 7.9620841277409999e+00 5.3065296374980004e+00 8.2612983243479992e+00
168 2 8.7939549328279991e+00 4.6551510166099996e+00 6.2146002711900001e+00
169 2 3.2893004433230000e+00 6.2026831664600000e+00 6.4348133525769997e+00
170 2 4.8215051817449996e+00 6.5151728921220000e+00 8.1588469052659995e+00
171 2 1.2012289336929999e+01 1.4837266094649999e+01 1.3285983434929999e+01
172 2 1.4224301195800001e+01 1.4211912422839999e+01 1.3970233794240000e+01
173 2 6.7444857268260003e+00 2.9543102747139999e-01 1.4973515344830000e+01
174 2 6.9899119082069996e+00 1.4246272872610000e+01 1.4255352834090001e+01
175 2 1.4531959443730001e+01 1.0778773012280001e+00 1.2900549270300001e+01
176 2 1.5636296935170000e+01 1.1859939920550000e-01 1.1103989913990000e+01
177 2 1.0615214412860000e+01 1.6492174365929999e+00 1.2415043954510001e+01
178 2 9.3446740661389995e+00 1.5372773008089999e-01 1.3710446606530001e+01
179 2 1.3706390294540001e+00 1.4253583482710001e+01 9.7790154168359997e+00
180 2 -6.0738665443000002e-02 1.3021479301230000e+01 1.1234278136970000e+01
181 2 1.0490835259670000e+01 5.3112800109840004e+00 1.1240656207910000e+01
182 2 1.0686191926970000e+01 3.8045752940019999e+00 9.4397286808610001e+00
183 2 1.0994660957600001e+01 2.0718582030350001e+00 6.3683393222299998e+00
184 2 8.7729297781660005e+00 1.2351491932470000e+00 6.1753243699529996e+00
185 2 8.1409293990439995e+00 1.0502629687480001e+01 1.3809172246879999e+01
186 2 6.2909346204379997e+00 1.0477414401350000e+01 1.2379081684850000e+01
187 2 1.4374756040230000e+01 3.0299329092720000e+00 6.1401854207730002e+00
188 2 1.2868946452790000e+01 3.7336040019720000e+00 4.4919009752569998e+00
189 2 1.3391395271920000e+01 1.1249662215330000e+01 9.5841287424610009e+00
190 2 1.4141269465330000e+01 1.0836504717570000e+01 1.1756259431400000e+01
191 2 3.0295759647740002e+00 1.2566427223620000e+01 8.0828231116520008e+00
192 2 4.7969390540800001e+00 1.3466087390389999e+01 9.3020669404070002e+00

Velocities

1 1.8567136260440000e+00 5.3042436832800002e+00 -2.3870239221550000e+00
2 -3.3328063683379998e+00 -3.5613397474780002e+00 8.4629157159649999e+00
3 6.2139563702520002e+00 -5.6192636856079998e+00 9.9257166777439991e+00
4 6.3398667611419999e+00 3.3343660467300000e+00 6.3539891591050002e-01
5 -6.0065297348549995e-01 -5.6206683726620001e+00 1.1263500269810001e+01
6 -4.7825492309550004e+00 -1.0595798658619999e+00 2.1683779600330002e+00
7 4.9774993040759998e+00 -1.4855675368990000e+00 -1.9613562143240000e+00
8 -5.6707346389150004e+00 6.2093551031690000e+00 4.8658319365110003e+00
9 9.9360239781920001e-01 -1.1503246527170001e+01 6.8867120385130001e+00
10 4.0020835090110003e+00 8.4816592113750000e-01 -3.8589571984290001e+00
11 7.2430316187140003e+00 -4.5670736160549996e+00 -2.1493354598330000e-01
12 1.7845278280740000e+00 6.5195240108799997e+00 9.7144767151080003e-02
13 3.3107093195199999e+00 -8.2901842242459995e+00 4.7638542082160003e+00
14 1.8458278073920000e+00 -9.5883237293150003e+00 -1.1467291831080001e+01
15 -8.6384535303940002e-01 -1.9678842961740000e+00 2.1887457360129998e+00
16 -1.6009691585490000e+00 2.9995736181360000e+00 1.2007810963879999e+00
17 3.8334383524550000e+00 8.8677874290030001e-01 -6.6235161574260004e-01
18 -1.4282517903340000e+00 1.8201758854550000e+01 4.9394637117949998e+00
19 3.5910044951879998e+00 -6.4131549539319999e-01 2.1123042172050002e+00
20 4.4489296981889996e+00 3.5239621142769999e+00 3.6896726502930000e-01
21 2.9851821055770000e+00 -2.7021414644910000e+00 -9.3495623791330001e-02
22 -7.4116172198639996e+00 -3.8142217245390002e+00 -1.2559294873489999e+00
23 -1.9889573188790000e+00 -2.8675209799800001e+00 3.6033691233920000e+00
24 -1.0615993320749999e+00 -4.3204718251129998e-01 -3.8541538399439998e+00
25 1.3014928757499999e+00 8.6373839156700005e-01 3.7693268694689999e+00
26 7.5667875703530001e+00 5.5639768065730000e-01 -5.1457258714440002e+00
27 -9.4461002810250001e+00 -3.4360690155290001e+00 -1.0324192744250000e+00
28 -5.2923928910739999e+00 3.2943460287269999e-01 -1.0644540031560000e-01
29 1.0212208382000000e-01 9.9518686590610006e+00 5.4625161311030004e+00
30 2.9028501460670002e+00 1.3181840349250001e+01 5.5900508464999996e+00
31 2.9844470724270000e-01 2.0242990022599998e+00 -4.6329150670140001e-01
32 3.1869053732260002e+00 -1.4706074960140001e+00 1.7337434187909999e+00
33 4.6371829791339998e+00 4.9210354701609997e+00 -4.0029060047300002e-01
34 7.5033694482259996e+00 2.0667406459679998e+00 -1.1660389175910000e+00
35 6.6484567497770000e+00 5.4308432900170001e+00 -7.4975855890699998e+00
36 4.2840261494799998e+00 1.0878185433820000e+00 -6.2498775243610005e-01
37 9.3837764813549995e+00 -3.3628420634929999e+00 3.7882586817180002e+00
38 1.0762103393700000e+00 -8.8264470820500005e+00 -1.1525233918460001e+00
39 -2.5855934154110001e+00 -4.5504263806029996e+00 -3.7323670732259999e+00
40 3.2536351921670001e+00 -3.5038991200820002e-01 1.4970990334770000e+00
41 5.2447720407589999e+00 -2.2365166625469999e+00 -3.0326134734540000e+00
42 -9.4167200546659995e+00 3.8062105928430001e+00 3.9756477194680002e+00
43 -4.4992294264870001e+00 6.2618025111950004e+00 -1.8128538008699999e-01
44 5.6544829377109995e-01 -3.7640630548359999e-01 -7.3783531658179999e+00
45 3.6869781195429998e+00 -4.4245187631430003e+00 8.4844048905350000e+00
46 -3.2154928877039999e+00 -5.7321446107450003e+00 -1.0318329771169999e+01
47 -1.0526496332869999e+00 1.7050857925630001e+00 6.7125521377690001e-01
48 1.5726857783770001e+00 -4.8413281045180003e+00 1.4301371536680001e+00
49 -8.6089957607439995e+00 1.7663750469460000e+00 -4.7234974625090000e+00
50 2.4731314201040000e+00 5.2755293326099997e+00 5.4616715533950000e-01
51 1.1045673674590000e+00 5.9269433380159997e+00 -5.2223166635349996e+00
52 -1.0394826478200000e-01 2.7347895850630000e+00 3.8913917895249998e-02
53 7.6726720900260004e+00 -2.3653653728710000e+00 -8.6559734193220006e+00
54 8.1819894948149994e+00 5.3498520998080004e+00 -1.7071800232740000e+00
55 9.8016226395250001e+00 8.7222346164779996e-01 -8.9950558895449995e-01
56 -2.4319104575680002e+00 1.6626426532140000e+00 7.1122512034429999e-02
57 -4.5533975755400000e+00 4.1249424637700001e+00 -2.5236250312960000e+00
58 -9.3034062969480003e-01 -2.7740669438399999e+00 -2.7074292959139998e+00
59 -7.1194386264610001e+00 -7.6362693026219997e-01 4.8394857216030002e-01
60 -7.7319253471189997e+00 -2.0777465218660001e+00 4.9591081801580001e+00
61 -6.2316367950789999e+00 4.3946814694969999e-01 -5.5584898697840002e+00
62 6.8678855153939997e+00 -3.8648044368350003e-02 -2.0748181074029999e+00
63 -6.0461073623509998e-01 -4.3332483930750003e+00 1.0249824784690000e+00
64 -1.9655119595610000e+00 -4.3205491035880002e+00 8.6787048704889997e+00
65 1.4189545553259999e+00 -4.5437768453440004e+00 1.8990125942060001e+00
66 -1.6342881642600000e+00 3.4255851439640002e+00 -6.6385254278110004e+00
67 -3.3172581624289998e+00 -4.8639270443519997e+00 -3.2344087695789998e+00
68 1.5367170951660001e+00 2.4137239520409999e+00 1.8633446650579999e+00
69 6.1026345353100000e+00 2.4125610380900002e+00 -2.4161597863730000e+00
70 2.3807863607559998e+00 2.9106569286920001e+00 5.2514807744730003e+00
71 -8.2548148572510005e-01 -2.7139405587340000e+00 -1.5069241094490000e+00
72 1.9710822886620001e+00 7.5333114522619997e+00 2.5588548658420001e+00
73 -3.7035419194100001e+00 2.2064885479440002e+00 1.5232547693990000e+00
74 -4.1370286625240000e+00 -1.5654742720470001e+00 -3.1317451667020002e+00
75 -9.1551104114180004e-01 4.2885952323029999e+00 4.5159828262980000e+00
76 -4.5155854426099999e+00 -8.6025803884200003e-01 5.1582130826750001e+00
77 2.5880312257060001e+00 1.8986721163510001e+00 -4.2312158021070001e+00
78 3.1818125873800001e+00 -4.0996963578120003e+00 4.8845305235629999e+00
79 7.4988224417570004e-01 2.5172018081580001e+00 -3.0819808874940002e-01
80 8.9993533973410000e-01 5.1755144811809997e+00 -3.7287698655360000e+00
81 -1.7750583714829999e+00 3.2171711238010001e+00 7.0462148473580000e-01
82 -2.2890711823859999e+00 -2.5104570693279999e+00 1.9430335648620001e+00
83 2.2421669455969999e+00 -2.0703409565680002e+00 5.8037532582329998e+00
84 -4.3366461819930002e-01 9.8273050023450004e-01 8.8678935874919995e-01
85 -3.5903806681760000e+00 2.3468781956410001e+00 5.1921373093299996e+00
86 4.5405853753379999e+00 5.1973841039980000e+00 -2.2934160496409999e+00
87 1.4102151745030000e+00 -2.9473822604939999e+00 -5.3176025682220001e+00
88 -2.3605259077260001e+00 -3.4555592466200000e+00 -1.0458601465640001e+00
89 -3.7831307599980000e+00 3.7224568771739999e+00 7.8179756072369999e-01
90 2.7589536401569998e+00 -4.1430461640590002e+00 5.6320823577550003e+00
91 -3.4363028163699999e-01 -1.8020202322929999e+00 1.7510447408170000e+00
92 -2.7402262895920000e+00 -2.5854962683789999e+00 3.8725084149759997e-01
93 1.3930081450150000e+00 3.9057907245079999e+00 -3.8187170730969999e+00
94 -4.4372516683000001e+00 -1.6941765835710001e+00 -1.8236869692660000e+00
95 2.1362038849489999e+00 -7.4865092681850003e+00 1.1060804453730000e+00
96 1.1035801535120000e+00 8.7361685870869998e-01 -4.4075981232289996e+00
97 -5.0306111912020004e+00 -1.1510749695469999e+00 1.4577690000690000e+00
98 3.1651771793440000e+00 -6.4901593464329999e+00 -1.1153388190930000e+01
99 -1.2249885967520000e+00 -4.6249041315190000e+00 5.7808102391379999e+00
100 5.7376674512100001e+00 2.2956403410389998e+00 3.4607365562679999e+00
101 -6.3491731125350004e+00 -2.8066261431610000e+00 6.7816606331539999e+00
102 -4.8147374301090000e+00 -2.3304678515999999e+00 -5.1511030536350004e+00
103 -1.4934626540540000e-01 4.9943246103690004e+00 6.5977372986790002e+00
104 -1.6522444101220000e+00 -8.1251638429069999e+00 2.8125604854400001e+00
105 -7.3744555030269998e-01 3.9189571644300001e+00 2.4938666190549998e+00
106 1.8086750505939999e+00 8.9558520450410004e+00 7.5242662283410006e-02
107 -3.7530460526970000e+00 -4.7655912557900004e+00 2.0943409297239999e+00
108 -3.5972397445510000e+00 1.5578217446230000e+00 2.0240162637390000e+00
109 -2.6206167139079999e+00 8.7277282077980001e-01 -6.3443535284710002e+00
110 1.8191921604100001e+00 -1.3830787097990001e+00 -2.9418347310240001e+00
111 5.3422685201769999e+00 1.4298223860510000e+00 -8.0599185895489995e+00
112 2.6744533714540002e+00 4.4396914769749998e+00 8.4219664174820004e+00
113 2.4494998752780002e+00 6.9744899511509999e+00 -4.9355137969929999e+00
114 2.9346992015139999e+00 -1.2110944444659999e+00 -1.1455401989389999e+00
115 -1.6516729544669999e+00 -9.2131439305359997e-01 2.2272103458179999e+00
116 -4.8021818145210000e+00 9.2104567840769995e+00 -4.6502634603380004e+00
117 -7.8657358869099996e+00 5.0439108204469996e-01 -2.5223430367009998e+00
118 -1.9377342856169999e+00 -9.0226844432960007e+00 -8.8530005739789992e+00
119 4.3198604800910001e+00 -3.9956464018180000e+00 -1.6122757713810001e+00
120 5.4589869868630000e-02 -3.6188965588530002e+00 1.2149703931400000e+00
121 2.9195192944219999e+00 -3.8640779312490001e+00 4.5708011879420001e+00
122 1.2088260989449999e+00 5.1724255373060002e+00 -3.4314842399779999e+00
123 3.0785678951260000e+00 3.1029304890440002e-01 -3.4951192755060001e-01
124 9.3790197404609998e-01 2.3230347272800000e+00 5.5072440976369998e+00
125 -4.5401555376409997e+00 2.7429399548619999e+00 4.0243880733030002e-01
126 -3.6061532328860002e+00 1.8566455877910000e+00 -2.6759327039579999e-04
127 9.4714337026170006e-02 -3.7902264313480001e+00 -4.0689004974160001e+00
128 -6.3973395985649999e+00 -4.1060825496350004e+00 -2.2867058005400001e+00
129 -4.2932866463690003e+00 2.5291048568329999e+00 3.3509386647910002e+00
130 8.2361901491509997e+00 8.5844416078620001e-01 -1.7224133699480000e+00
131 -2.8062833293380001e+00 -5.8168310532799996e+00 -3.4931023086890001e-01
132 1.3761075032290000e+00 3.5912579763519997e-02 2.5076530626760002e-01
133 -3.6617921749630000e-01 -5.3584766893570004e+00 2.0843842264640000e+00
134 8.2820068117170003e+00 -5.8683117973329999e+00 2.4486626994049998e+00
135 -3.5473134942670002e+00 -1.3485393686330001e+00 2.9387680635989999e+00
136 2.2405128339960001e+00 4.9771200392069997e-01 -8.5932586862790004e+00
137 -6.8676786352149999e-01 3.3935009368890001e+00 -2.3191850429990000e+00
138 2.7113797628149999e-01 2.1152169912919998e+00 -1.3914186471240000e+00
139 1.3244202217809999e+00 6.6636581289109997e-01 -4.5735620811309996e+00
140 1.8696186291450001e+00 -1.9165121847180000e+00 1.9652815031419999e+00
141 1.7159881405930000e+00 -4.7316296483359999e-01 1.5257748088959999e+00
142 1.2978418102110001e-01 2.2023000824120000e+00 -4.1197783690989997e-01
143 -1.1028893334800001e+00 1.8508673164450000e+00 -1.8235205261140000e+00
144 -3.2302751027599999e+00 -2.8337426236779999e+00 -1.5800521735999999e+00
145 -1.5054137776359999e-01 2.7209079747970000e+00 -2.9940715879400002e+00
146 -2.2879600764679999e+00 9.4829016045210002e-01 9.0367374807560008e+00
147 -1.3459955128200001e+00 -3.6886104781180000e+00 6.6710002068370002e+00
148 6.3151832502529999e+00 9.7218357813120004e+00 7.9112582711090003e+00
149 6.8612689823449999e+00 -9.1025965062030001e-01 4.4646154705200001e+00
150 5.7627549694100004e+00 -8.5114508861860005e-01 1.9210772797160001e+00
151 1.2860195705860000e+00 6.3615971573339994e-02 -4.4791620200890003e+00
152 2.3749516395980002e+00 -4.1028950884360000e+00 3.5010947586159999e+00
153 1.7697563771189999e+00 1.8296406576960000e-01 -1.4962200196390001e+00
154 -5.2007885701010004e-01 2.7834414967869998e+00 6.4148209263919997e-01
155 -1.0298200304689999e+00 3.8449627393819998e+00 2.0097585176310000e+00
156 4.6430092828780003e+00 2.9186685770569998e+00 -3.6971990947700001e-01
157 5.5519996361169999e-01 5.9165288951940003e+00 -1.7309339034110001e+00
158 -1.3304336600960001e-01 1.9399515804600000e-03 1.1808317935660000e+01
159 6.4418187434279996e+00 -2.7607157521610000e+00 -4.4235718495140004e+00
160 -5.1497123916680003e+00 -2.5026783455819999e+00 -2.7184580836530001e+00
161 1.8972182701330000e+00 -4.8470603205320000e+00 -2.5547603627080000e+00
162 -1.9890363555020001e+00 -9.0721598864660002e-01 -2.0496094353889999e-01
163 3.5058602933179999e+00 -2.2932590359270000e+00 -5.8372864349730003e-01
164 -7.4477849304049997e+00 1.4397350621089999e+00 -1.2802923064459999e+00
165 -4.6642740283929998e+00 9.2890167802200008e+00 1.8117913083010000e+00
166 -8.2435433850059994e+00 5.7770180958519997e-02 4.7104034282490002e+00
167 3.1333689769520001e+00 2.0643698752390001e+00 -3.7607855856920001e+00
168 8.7080037010919997e-01 -2.4007054045000000e+00 -5.1445794134960003e+00
169 3.8235227418409998e+00 -1.4485414494950000e+00 -3.3282885097660002e+00
170 2.1409618137399999e-01 -3.1566789861719999e-02 -6.1591234954289997e-01
171 3.8871218153410001e+00 3.3865865547589999e+00 -3.4509862211739999e+00
172 -4.3150855419810004e+00 -1.8182915398810000e+00 -5.2748430059039997e+00
173 -4.7284708355509997e+00 5.8933032706790001e-01 1.5077989908750000e+00
174 3.8881434861069999e+00 -5.1940655407699996e+00 1.5324346812059999e+00
175 -5.8158403998450003e+00 2.1169270437660002e+00 1.9381765890980001e+00
176 -5.5269131564859997e+00 2.9210870654819998e+00 6.2199418139870000e-01
177 -9.0371346604829998e+00 -2.9788726975180002e+00 -1.3550765372139999e+00
178 -3.5580312733559998e+00 4.1352691138080000e-01 -7.0427135936819996e+00
179 -5.1718645331959996e+00 -4.3297218513629998e+00 6.1502444283140001e+00
180 2.5911963906100000e+00 2.0939041303749999e+00 -6.2881453100420002e+00
181 -5.7279685440210004e-01 4.2888421150450000e+00 -4.8901194387260000e-01
182 4.9913194578029998e+00 -6.2943460124710002e+00 3.1217914622679999e+00
183 -5.1869374323730000e+00 -4.5452973501680001e+00 -9.5457091399009997e-01
184 -5.7462412156409997e+00 4.8089604281699998e+00 3.6715586711010002e+00
185 8.6907478196760000e+00 -3.7226643081559998e+00 4.4908861929819999e+00
186 1.0898333466510000e+00 -1.2475976355760000e-01 -7.2726652064959998e+00
187 -7.2666385140000003e+00 -5.1176924056019999e+00 -7.5393891746749997e-01
188 -3.5441607948830001e+00 3.8531605600029999e+00 1.6532434418999999e+00
189 1.1250050436570000e+00 -8.8166425676860005e-01 3.1220874696440002e+00
190 5.5061718230560004e+00 -8.0564118468720003e-01 -4.7769392186410000e+00
191 1.3611478404670001e+00 -1.0481260478550001e+00 -4.8799526642900002e+00
192 -8.1531188210389995e+00 -2.5178848336219999e+00 -2.4516585706009999e+00
