LAMMPS data file extracted from NVT dump, timestep 1080000, units metal

192 atoms
2 atom types

0.0000000000000000e+00 1.6195563468200000e+01 xlo xhi
0.0000000000000000e+00 1.6195563468200000e+01 ylo yhi
0.0000000000000000e+00 1.6195563468200000e+01 zlo zhi

Masses

1 12.00000000
2 16.00000000

Atoms # atomic

1 1 4.9694848039529999e-01 1.4613630353380000e+01 8.0863754049779999e+00
2 1 1.6915066175839999e+00 1.3827992549230000e+01 1.4727382642249999e+01
3 1 1.5966756670370000e+01 5.6629926309409995e-01 1.2553995282970000e+01
4 1 7.4327179541580000e+00 1.4497319897230001e+00 4.9053911011800002e+00
5 1 2.4918017748280001e+00 7.4619580976639996e+00 1.2514130936019999e-01
6 1 5.6481293958560004e+00 4.4848800369920001e+00 3.1253290725560001e+00
7 1 2.3171800628160000e+00 2.5572613999640001e+00 9.0123883892329992e+00
8 1 7.6877510706420003e+00 1.8185965792970000e+00 1.1240022413120000e+01
9 1 2.0096511555959999e+00 1.1609017779409999e+01 5.7965509505819997e+00
10 1 2.4202575072150001e+00 6.5475461650430000e-01 5.4501381961610003e+00
11 1 1.7641797463500000e+00 3.3228138711680000e+00 2.5019629589679999e+00
12 1 1.4657437824000001e+01 7.6560968043219999e+00 4.7294281359610002e+00
13 1 9.4906045359669999e+00 1.1578237969540000e+01 5.9871024362450003e+00
14 1 5.9688156677339999e+00 1.2942113075400000e+01 9.3379634962210005e+00
15 1 9.9853717611019999e+00 1.2648368844460000e+01 2.0542371717800000e-02
16 1 9.5172144374110008e+00 1.4110030338740000e+01 3.7403944018250002e+00
17 1 1.2224342782720001e+01 5.7908312894920000e+00 3.1940202848769998e+00
18 1 1.4119213086860000e+01 1.3379474888430000e+01 1.2276521218010000e+01
19 1 7.3278946226870001e-01 4.6181534217270004e+00 1.4017440028710000e+01
20 1 4.4733700183799998e+00 1.0843805977879999e+00 1.6143080634970001e+01
21 1 1.3347844145440000e+01 1.0410300786660001e+01 3.4198136933060002e+00
22 1 5.5691858404460000e+00 1.8290728618400001e+00 8.1459936547599998e+00
23 1 7.9262769581689998e+00 6.6696339247949998e+00 1.3616154549839999e+01
24 1 1.3493248434930001e+01 1.4972644585959999e+01 5.1443059569000003e+00
25 1 1.0859137236340000e+01 8.8777237248439995e+00 1.5817917513850000e+01
26 1 1.3156023739449999e+01 1.1544831354600000e+00 8.8908525024819998e+00
27 1 3.7398439970399999e+00 1.5636110620180000e+01 1.0786440639409999e+01
28 1 9.5048627846010003e+00 1.6039373360519999e+01 8.2086020768099992e+00
29 1 8.8010276265599998e+00 5.3593240489229999e+00 5.4574504061909996e+00
30 1 7.0879374394410002e+00 1.4520947233690000e+01 1.3789877439940000e+01
31 1 2.1932530614690000e+00 7.9081747272950000e+00 7.5359029081140001e+00
32 1 7.5115584805779996e+00 1.4945864249510000e+01 1.1763467629700000e+00
33 1 1.1659391777220000e+01 2.3025912546880001e+00 5.1668563256560001e+00
34 1 9.7564398281540008e+00 1.3355686406849999e+01 1.0785998520590001e+01
35 1 1.2630739754009999e+01 1.2035227787329999e+01 8.4011007404869993e+00
36 1 8.6722928433649997e+00 8.3637166804569993e+00 2.7038490920460001e+00
37 1 1.1457684477590000e+01 1.0608322379350000e+01 1.2485461281930000e+01
38 1 1.5427091145690000e+01 8.1807806940590009e+00 8.5492476001540005e+00
39 1 1.2386357425529999e+00 5.0789778916559998e+00 6.2684671144530002e+00
40 1 8.9169347844040008e+00 9.0856958614979995e+00 1.0461933924160000e+01
41 1 8.7602313037070001e+00 4.7437812768159997e+00 9.0396764969020005e+00
42 1 5.8914316708010004e+00 1.4405329079330000e+01 5.6883340036999996e+00
43 1 1.1110880377899999e+01 8.1493643513869998e+00 7.0438819376190001e+00
44 1 5.2122678539259999e+00 1.0991674099270000e+01 2.3440789332210001e+00
45 1 1.0612941508720001e+01 1.6615924656390000e+00 1.8292811248059999e+00
46 1 4.5574593835119996e+00 3.9521279039990000e+00 1.2613709713470000e+01
47 1 1.4474235193029999e+01 6.3787656228270002e+00 1.6029499146629998e+01
48 1 1.0988392403650000e+01 4.3562737863030003e+00 1.3505745852060000e+01
49 1 5.5625026473080004e+00 9.3021300501259994e+00 5.7907016546619996e+00
50 1 1.3477184898260000e+00 1.1733426221900000e+01 1.0478942092760001e+01
51 1 1.4291580751600000e+01 2.4874686398899999e+00 5.3825388693950005e-01
52 1 7.2619892246209998e+00 1.0135300377380000e+01 1.4337798672780000e+01
53 1 4.7929035577899999e+00 1.0415968842290001e+01 1.1361829606180001e+01
54 1 1.2387593018190000e+01 7.2630548995739996e+00 1.1625097467690001e+01
55 1 5.2886777435859997e+00 5.4508187695240000e+00 8.8416168034590008e+00
56 1 2.7216282350459999e+00 7.4413367264319996e+00 3.6516720055200000e+00
57 1 1.5517313171350001e+01 4.4661792642040004e+00 1.0076324976780000e+01
58 1 5.2706439905309999e-01 9.5463422433989997e+00 1.2473480249660001e+00
59 1 1.1193996155880001e+01 1.5697771644050000e+01 1.3070778002959999e+01
60 1 1.3290149268030000e+01 4.7170171485979999e+00 7.0895741595019999e+00
61 1 2.0436917452259999e+00 1.4671330032609999e+01 2.3334839896599999e+00
62 1 1.3776281389650000e+01 1.4004250374780000e+01 7.2207644924640002e-01
63 1 1.5273327833780000e+01 8.9133526813920003e+00 1.2629410157550000e+01
64 1 2.6511570588539999e+00 6.9419195017730004e+00 1.1735716021020000e+01
65 2 1.5934137336090000e+01 1.4471538279390000e+01 8.9596669606199999e+00
66 2 1.2737087365440001e+00 1.4760658435130001e+01 7.2107850904310000e+00
67 2 2.2346988455500001e+00 1.4144730032600000e+01 1.5714928406200000e+01
68 2 1.1765183828260000e+00 1.3534568761459999e+01 1.3687986511380000e+01
69 2 5.2069742237210004e-01 8.9459981140669997e-01 1.3380874733670000e+01
70 2 1.5220482617120000e+01 2.9237863432590000e-01 1.1681286725870001e+01
71 2 6.3929282062089996e+00 1.2852475169690001e+00 4.4295522562130003e+00
72 2 8.5514348532660005e+00 1.5536579977889999e+00 5.2390147699499998e+00
73 2 1.5080443885879999e+00 7.3496659129079998e+00 1.5680513295700001e+01
74 2 3.4118700445179999e+00 7.6608526595909998e+00 8.0510774676499997e-01
75 2 4.6209568691560001e+00 3.9400348357780000e+00 2.9163445701219999e+00
76 2 6.6745178797740001e+00 5.0096819118050000e+00 3.3907929064459998e+00
77 2 3.0267448226339999e+00 3.1912774661249999e+00 8.3266371788529998e+00
78 2 1.5650670253190000e+00 1.9420317559339999e+00 9.6823094531410003e+00
79 2 7.4421625147350001e+00 2.9109220266709999e+00 1.1566558263099999e+01
80 2 7.8943797467049999e+00 7.1186318378739999e-01 1.1009620137470000e+01
81 2 3.1415851951959999e+00 1.1763331909130001e+01 5.5516058637450003e+00
82 2 8.3356470156719997e-01 1.1543123794940000e+01 6.0707687483920001e+00
83 2 2.0524160138680001e+00 1.2719869427549999e+00 6.3770320628489996e+00
84 2 2.8698169164120002e+00 1.5435367932390001e-01 4.4833898008290003e+00
85 2 1.9905948141140000e+00 3.7370773068630001e+00 1.4195587910930001e+00
86 2 1.5596492697210000e+00 2.9216886054800000e+00 3.5911657609710002e+00
87 2 1.4770738254039999e+01 7.0527909988679998e+00 3.7065103645880000e+00
88 2 1.4573091614190000e+01 8.2692403954289997e+00 5.7245489276410000e+00
89 2 9.6546142478710006e+00 1.2667109325949999e+01 6.3593118273069997e+00
90 2 9.2380753345639999e+00 1.0505819188029999e+01 5.5537962758279997e+00
91 2 5.9307156103920002e+00 1.3168928668490000e+01 1.0473614454340000e+01
92 2 5.9214176070870002e+00 1.2596087005279999e+01 8.2165447492909998e+00
93 2 1.1145917444429999e+01 1.2776708171799999e+01 2.1342418765010002e-02
94 2 8.8105959924419999e+00 1.2489974942540000e+01 1.6335402630539999e+01
95 2 9.6440000001010002e+00 1.3040234359110000e+01 3.3178978262140002e+00
96 2 9.3807302790179996e+00 1.5162391269490000e+01 4.2766286454279996e+00
97 2 1.1834139165350001e+01 6.0176977057560004e+00 2.0926029342310000e+00
98 2 1.2547237665200001e+01 5.6252722728869999e+00 4.3146491837510004e+00
99 2 1.4473806314280001e+01 1.3754769578910000e+01 1.3342374174800000e+01
100 2 1.3647299531650001e+01 1.3056176900570000e+01 1.1223701423810001e+01
101 2 1.5801668217170000e+01 4.6999779564580004e+00 1.3650005495549999e+01
102 2 1.8143335683240001e+00 4.4829629218499996e+00 1.4402962674010000e+01
103 2 4.2904102205139996e+00 8.4937959587510004e-01 1.0729578899490000e+00
104 2 4.6436955757760003e+00 1.2813730671979999e+00 1.4960535905580000e+01
105 2 1.2741898255890000e+01 9.4230187584500005e+00 3.2191681672810000e+00
106 2 1.3909761475150001e+01 1.1417138788919999e+01 3.6448490541849998e+00
107 2 5.2227199858019997e+00 1.1357820500939999e+00 9.0843284836770000e+00
108 2 6.0417496415900001e+00 2.2773885148069999e+00 7.1981456260950001e+00
109 2 8.2626400485880005e+00 5.9275277432040001e+00 1.4433234849490001e+01
110 2 7.6719543290240004e+00 7.4393482454309998e+00 1.2784911656369999e+01
111 2 1.4468161507210000e+01 1.5609491735690000e+01 5.1902360899059996e+00
112 2 1.2502569407439999e+01 1.4333982687440001e+01 5.1795649255910003e+00
113 2 1.1943218793800000e+01 9.2104739761930006e+00 1.6096702796390002e+01
114 2 9.7284999316050005e+00 8.6583477680529999e+00 1.5641449336370000e+01
115 2 1.2443132233060000e+01 2.0152453577770002e+00 9.2379461793120008e+00
116 2 1.3854660440050001e+01 3.2629904119510000e-01 8.4858637795499998e+00
117 2 3.3635084286910000e+00 1.5136506332730001e+01 9.7777168503799992e+00
118 2 4.0409287797079996e+00 1.6123430922040001e+01 1.1829462623720000e+01
119 2 1.0647095467640000e+01 1.5897195559209999e+01 8.1559395928609995e+00
120 2 8.3650501961469992e+00 1.4290021171690001e-01 8.2797666924980007e+00
121 2 9.6797690786300006e+00 5.0818115807220003e+00 4.7332873414729999e+00
122 2 7.9978652110470003e+00 5.6452559028379996e+00 6.2161272467369999e+00
123 2 6.2256539799609998e+00 1.4395860139520000e+01 1.4578178109950001e+01
124 2 7.9013527719730003e+00 1.4684112563790000e+01 1.2981645897270001e+01
125 2 2.6461008161500001e+00 7.7641453705409997e+00 8.6418934824450009e+00
126 2 1.9689950609689999e+00 8.1526649833760008e+00 6.4081317813999998e+00
127 2 8.5114962711030007e+00 1.5428588520610001e+01 7.5008435775719995e-01
128 2 6.4246803691150003e+00 1.4759753487210000e+01 1.6096330708019999e+00
129 2 1.1431565705400001e+01 2.3132821313809999e+00 6.3173047316430004e+00
130 2 1.1813170587120000e+01 2.3147982960569999e+00 3.9964771582440002e+00
131 2 9.0790352715160001e+00 1.3336789046390001e+01 9.8524964980299998e+00
132 2 1.0336574940500000e+01 1.3302197116320000e+01 1.1816115560949999e+01
133 2 1.3715062999420001e+01 1.2373033645100000e+01 8.2097353546070000e+00
134 2 1.1583390527720001e+01 1.1586621472890000e+01 8.4491276034219993e+00
135 2 7.8429946069590004e+00 8.9357740345389995e+00 2.0650278495390002e+00
136 2 9.5714667337029997e+00 7.9325997560600001e+00 3.3207509408720002e+00
137 2 1.0876175376000001e+01 1.0657078639240000e+01 1.3485594835150000e+01
138 2 1.2099470832310001e+01 1.0556958463650000e+01 1.1505531830310000e+01
139 2 1.5836098009940001e+01 9.2271441127169993e+00 8.8381714562409996e+00
140 2 1.5107778395800000e+01 7.0636955042220002e+00 8.3374075520200002e+00
141 2 2.3300721970480001e+00 5.1826010642040004e+00 6.6733671857790000e+00
142 2 1.8071063098490001e-01 4.9767211749709999e+00 5.8003607938009996e+00
143 2 8.2143734367029992e+00 1.0020877935650001e+01 1.0514521644080000e+01
144 2 9.6866535095029995e+00 8.1896697932749998e+00 1.0504746981389999e+01
145 2 9.2864115007110009e+00 3.7389052867529999e+00 8.7135662518749992e+00
146 2 8.3928143203639998e+00 5.7210238533439997e+00 9.5652130755859996e+00
147 2 5.4295341448830001e+00 1.5116787413130000e+01 6.5135695970349996e+00
148 2 6.3731248031480003e+00 1.3726567185220000e+01 4.8750615187869997e+00
149 2 1.2088062092270000e+01 8.7853601682699995e+00 7.2149177872759997e+00
150 2 1.0038381945490000e+01 7.6672509171350001e+00 6.8846510057560000e+00
151 2 4.7589239643369998e+00 1.0434677858640001e+01 1.4241368383310000e+00
152 2 5.6981017284729996e+00 1.1524504220020001e+01 3.2539887200350002e+00
153 2 1.1584920425849999e+01 1.2962347839780000e+00 1.2026360424880000e+00
154 2 9.6214723665669997e+00 2.0697861673159998e+00 2.3221533716370000e+00
155 2 5.0518261588979998e+00 4.8095661081849999e+00 1.3229415770259999e+01
156 2 4.0951641705429997e+00 3.0832583886850000e+00 1.2009013686890000e+01
157 2 1.4769653259780000e+01 5.4919098657329997e+00 5.2971347999439999e-01
158 2 1.4204657432610000e+01 7.3666791070839999e+00 1.5488082511940000e+01
159 2 1.1362790446229999e+01 4.7235014142110003e+00 1.4573619633290001e+01
160 2 1.0666987724120000e+01 3.9901061975570000e+00 1.2439791296439999e+01
161 2 4.7019012998039997e+00 9.4416672533830006e+00 6.5648373045659998e+00
162 2 6.4442413395590004e+00 9.2979831908620003e+00 5.0503570717430000e+00
163 2 1.9825539056110000e+00 1.1921689221099999e+01 9.5167019772570001e+00
164 2 7.4911119094640000e-01 1.1477705494389999e+01 1.1455921007010000e+01
165 2 1.4944498817440000e+01 2.3614143139560002e+00 1.4822299006020001e+00
166 2 1.3632049038520000e+01 2.5002201594629998e+00 1.5748285947419999e+01
167 2 6.8445673702710002e+00 9.2181547902169996e+00 1.4925296994849999e+01
168 2 7.5538746895270004e+00 1.1012398430290000e+01 1.3592267443450000e+01
169 2 5.3388543629729996e+00 1.0078268089960000e+01 1.0370020960320000e+01
170 2 4.4762877746180001e+00 1.0737105643040000e+01 1.2465874357950000e+01
171 2 1.3070037659120000e+01 7.0593951288780001e+00 1.0693788987850001e+01
172 2 1.1607677019070000e+01 7.5722190540750001e+00 1.2460389172830000e+01
173 2 5.3105957757129998e+00 4.4633662718389999e+00 9.4445454131119995e+00
174 2 5.3496656657499999e+00 6.4627405478800002e+00 8.2468604820069995e+00
175 2 3.4642886183399999e+00 8.3264093475349998e+00 3.7958764535329999e+00
176 2 1.9609770308209999e+00 6.5283192858819996e+00 3.5028943203340002e+00
177 2 1.4784724989180001e+01 4.7237260249470001e+00 1.0947317245870000e+01
178 2 4.2903985470870001e-02 4.4550223767340000e+00 9.1564382841790000e+00
179 2 5.6724895167239997e-01 1.0289793170530000e+01 3.5676677747309998e-01
180 2 4.3475592687379999e-01 8.8741708269149999e+00 2.2325597824069998e+00
181 2 1.1609414283150000e+01 6.0117140056649997e-02 1.2125672766539999e+01
182 2 1.0743036789150000e+01 1.5130856299780000e+01 1.3971433641220001e+01
183 2 1.3866438195170000e+01 3.9987570324010000e+00 6.3515063509280001e+00
184 2 1.2761118625530001e+01 5.4509949748319997e+00 7.8569965759980001e+00
185 2 2.7776509597770001e+00 1.3837014658139999e+01 2.7229920388559998e+00
186 2 1.2676210482660000e+00 1.5454102623020001e+01 1.9186041112700001e+00
187 2 1.3741484758620000e+01 1.5111647245200000e+01 2.8399075925520001e-01
188 2 1.3966938606810000e+01 1.2947001693170000e+01 1.1618955413090000e+00
189 2 1.4672571692709999e+01 9.4937863838969996e+00 1.3472899892059999e+01
190 2 1.5953016105950001e+01 8.4192593229289994e+00 1.1775343855399999e+01
191 2 2.5391683697160001e+00 7.9551117022059996e+00 1.2323053881640000e+01
192 2 2.5900048271800000e+00 5.9344373543489999e+00 1.1089738989300001e+01

Velocities

1 3.8702062749819999e+00 -4.8858910299720000e+00 2.9202106742410000e-01
2 -6.3834332159070000e+00 -2.1099429686460001e+00 -1.9206388230110001e+00
3 3.2313457494110001e+00 4.9030507048430003e+00 5.4851747301560003e+00
4 2.5763628782889998e+00 -3.7317800749879999e+00 1.1135713893810000e+00
5 -7.7543327332020002e+00 4.5906598487380004e+00 9.3536699339550000e-01
6 3.6521600081210002e+00 -1.2561960372259999e+00 -2.9636514311259998e+00
7 7.4686926321570002e-01 6.8475610630219996e-01 -5.7849645700380004e+00
8 -3.2278018863429998e+00 -9.0687053026030000e+00 1.1050226356960000e+01
9 -6.0764306182350003e+00 -3.6413392240659999e+00 -1.4427783982919999e+00
10 -6.6314110991739996e+00 -9.1051756685340002e-01 1.4489571711189999e+00
11 -4.3063446665470000e+00 -1.0062475040950001e+00 -3.6863135344859999e-01
12 3.3290786715189999e+00 2.4525418886139998e+00 5.3511314131740004e+00
13 -6.1031119290209999e+00 1.9260778203319999e+00 1.6128362065849999e+00
14 -4.3651752114860001e+00 -8.8490326622889999e+00 -9.7505656174830002e-01
15 -3.7568890606740002e+00 3.2809903178500002e+00 4.6285958615710001e+00
16 -1.4063025369490001e+00 -1.6782524771290000e-01 2.1467544370110000e-01
17 4.7619589358940004e+00 -8.7136907046690002e+00 -2.6372258254320000e+00
18 4.7942444610750004e+00 -3.4146278503200000e+00 3.2218665956930002e+00
19 -1.2625409803509999e+00 -3.3945045483379999e+00 1.4200481611050000e+00
20 -8.5908868525869995e+00 -6.7048987948140004e-01 7.8390515576039999e+00
21 -5.6753962924649999e+00 4.0838655069240000e+00 -4.3830570038470000e+00
22 1.6785125422380001e+00 -2.4319606430250000e+00 -4.7165180485890001e+00
23 -3.7142248385070000e+00 -6.2471232251900002e+00 -4.6820941451330000e+00
24 3.7071411305370000e-01 5.4724385761649996e+00 1.2216776189830001e+00
25 2.1307345264949999e+00 -6.2885111204350003e-02 -1.5392289621210000e+00
26 -6.8565350481129999e+00 -4.0414699861879999e+00 -3.1359921674950000e+00
27 8.1860678989839997e-01 -5.2864785251889996e+00 3.1301228382009998e+00
28 9.2456773378539996e+00 -1.9642942260759999e+00 -1.9918456723039999e+00
29 7.3262092818740001e+00 2.6279233704289999e+00 -2.9841729497070002e+00
30 5.2832945904730000e+00 -1.4341949195329999e+00 -6.9172845551510003e+00
31 -2.7416185337440000e+00 9.3308859578459996e-02 2.2020527483060000e+00
32 8.2408994208500008e+00 -4.7272444880059999e-01 7.9182185210760003e-01
33 3.2803924455800000e+00 -7.6667044336500001e-01 4.6346761227280000e+00
34 3.0328013757329999e+00 -5.2490819585089996e+00 -2.4392648810250002e+00
35 -1.3078346463380000e+00 4.1624713622250002e+00 2.3737419712930000e-01
36 4.6379201325780004e+00 4.6031524606129999e+00 4.5018693691850000e+00
37 6.2686851629850002e+00 8.5141072172109999e-01 -3.9303922703990000e+00
38 2.1517770844639998e+00 1.2394081451329999e+00 -1.0213119555440000e+01
39 -8.5922722169340005e-01 -5.8232537693269997e+00 -1.3774451559150001e+00
40 5.9137433841110001e+00 6.9150058447760001e+00 -5.7246069697630002e+00
41 -9.3925787580849995e+00 2.5120877184250001e+00 -1.9532801745849999e+00
42 3.4236251094660002e+00 -6.4312549201230000e+00 -3.3450712194299999e+00
43 -8.1716321941229997e-01 -2.2819512321150000e+00 -4.9954766630289997e+00
44 -9.4418566921089997e-01 7.7066766347200000e+00 1.3788145750909999e+01
45 3.0834681774249999e+00 -1.5110003594829999e+00 1.0659125008000001e+00
46 3.2362244820289998e+00 -1.8910820241499999e+00 -2.0727406407980000e+00
47 -3.6572016003169998e+00 2.4435476834420000e+00 4.1062362154120002e-01
48 1.2408415213810000e+00 1.5900982380369999e+00 3.4101842504220001e+00
49 1.1356996989190001e-01 -4.6412983248049997e+00 8.7757413351740006e+00
50 -1.1056300127190000e+00 5.1659124364010003e+00 3.1640368939289998e-01
51 -1.6877921548529999e+00 5.3404553918650004e+00 -5.1475964918730002e+00
52 1.9899690796480001e+00 -1.3554207305870001e+00 -4.4444924046659997e+00
53 2.5458719791150002e+00 1.9797273125890000e+00 -5.9119459348300003e+00
54 -7.2674699145959998e-01 -1.6261848518399999e+00 2.0127505885249999e+00
55 -2.3493333565700000e-01 1.3582108358580001e+00 2.2675863774440002e+00
56 -1.9349483099989999e+00 -2.8425034296909999e+00 5.5236853125650001e+00
57 -1.7084012627750000e+00 -1.8179293352929999e+00 -1.0804752456390001e+00
58 6.3211827395889997e-01 -4.6597909577990002e+00 7.1130080879489999e-01
59 6.9446572186219999e+00 1.6875344906200000e+00 5.2208526039020002e+00
60 1.1248309572520001e+00 1.4294148921770000e+00 1.2722577938040001e+00
61 -5.4663555474059997e+00 1.6726022266700000e+00 -2.6940220747070001e+00
62 -4.2030770101119996e+00 7.4091546804699995e-02 -6.7432089511630000e-01
63 6.5920415301929998e+00 4.3058990625910001e+00 1.9651027329790001e+00
64 2.9435354601100001e+00 5.2962358961190004e-01 5.8062957590730004e+00
65 1.6838104400139999e+00 1.3078082820790000e+00 -4.2837310755550000e+00
66 1.0788320265610001e+00 8.8849784531279996e-01 2.7223459802179999e+00
67 3.0458767011219998e+00 6.2945954411420004e+00 3.2194093123720000e+00
68 -1.1811799979900000e+00 -6.6141792755999997e+00 7.1134909588250004e+00
69 2.7539550020749998e-01 -4.5202932398630002e-01 -7.3423325611949997e+00
70 6.6481524989259999e-01 9.8326025551749996e-01 -1.3004656961580000e-01
71 -1.6554128207750001e+00 -1.3555150606130000e+00 -6.2157789819609999e+00
72 -6.0671332318579996e-01 2.9338365965829999e-01 -1.6194198400910000e-02
73 2.7852599486320000e+00 2.5740983909100001e+00 5.9925734440450000e+00
74 -2.1112133526010002e+00 -1.8040701181390000e+00 1.5477815497700001e-01
75 -2.1325031475229999e+00 -1.5406322263900001e+00 -2.6789581797689999e+00
76 -7.4632368952440006e-02 -1.0106662431500000e+00 3.0266667501720002e+00
77 2.7540127492559998e+00 2.3658824707939998e+00 -5.6708002456209998e+00
78 -5.7042796815790000e+00 1.3128362562180000e+00 7.5203937836090002e+00
79 2.2593558247360002e+00 2.8246440970419999e+00 1.5444472553369999e+00
80 3.1724706053850000e+00 -3.0972597296350002e-01 -6.4753658883320000e+00
81 2.3333986258769999e+00 -5.7454284332069996e+00 -6.6364697216559998e+00
82 5.0480192460010000e+00 4.8204968668990000e+00 -3.1346807890289998e+00
83 -1.3721537249489999e+00 4.9166664934630004e+00 4.7363668943980004e+00
84 2.7098305237200000e+00 -4.3538005080800000e+00 2.6604752860740000e+00
85 -1.1783466158570000e+00 2.5484822037639998e+00 -1.6428598923340001e+00
86 -6.4717835667249997e+00 -2.6807857708200000e+00 1.5576196106269999e+00
87 2.1051992946390001e+00 1.8361318398410000e+00 3.4601553210909999e+00
88 3.9229972897569998e+00 5.3849090926769998e+00 -3.1724086068020001e+00
89 -2.6246450480400001e+00 -5.4944198510120001e+00 -2.7314022537080000e+00
90 8.6437766659659996e+00 2.3790183547520001e+00 -2.2198868941629999e+00
91 -7.1610289243080005e-01 -3.3881606919170002e+00 1.6787994840980001e+00
92 -1.2580811372859999e+00 3.3818721049609999e+00 -3.0241772874319999e+00
93 4.0259195053700001e+00 -6.5862699846770001e+00 -4.5378933860700004e+00
94 2.8974304285380001e+00 8.6438634029580008e+00 2.0736499198590002e+00
95 -5.3838697011669998e+00 -7.2825598606990001e+00 -3.1368852010390000e+00
96 -5.9855733943390002e+00 5.1152130218789997e+00 2.1509184690110001e+00
97 -6.1026130200870004e+00 2.1628752806409999e+00 1.1384156802940000e+00
98 4.0503040802120003e+00 -4.0439967990210004e+00 1.8797688460070000e-01
99 2.2409523417939998e+00 -3.7648276751920001e-01 -1.1382851550590001e+00
100 -4.6397085347529998e-01 1.7083431004270000e+00 -4.5162873554180001e+00
101 7.8264178833729998e+00 -3.0569328081519997e-01 -3.9607145541050000e+00
102 -7.8158526124719996e-01 1.6131752969399999e+00 2.6006831146220000e+00
103 1.4003938260700000e-02 6.2780844866820000e-03 -1.7231084744800000e+00
104 2.7585138908980000e+00 1.8010879517250000e+00 8.0305018894869995e-01
105 -4.2320026652570002e+00 2.5487707805750000e+00 1.0282164368060000e+01
106 -2.4008856511240001e-01 4.0395446465499996e+00 4.8759425410889996e+00
107 4.9659557856110004e+00 -7.1496578819709997e+00 -6.3965149131040002e+00
108 1.4089235915380000e-01 -3.0937696928450000e+00 -8.6345900721010000e+00
109 -3.8966863661220001e+00 -6.6468201422969999e+00 -3.7870121731180002e+00
110 -3.3512072473560002e+00 -9.9650634821859996e-01 9.0076880659220004e-01
111 -2.9135382585710001e+00 7.1607450688330001e+00 2.9868230052980000e+00
112 1.5883783948590000e+00 6.4413071001129998e+00 4.1591360006990001e+00
113 -3.8273402872209998e+00 -2.4991536253179998e+00 -1.5327028627790000e+00
114 5.2415226774530002e+00 2.7162235550029998e+00 3.0443778301100002e+00
115 -4.3148635083039997e+00 8.6758497229279996e+00 -2.3933499951239998e+00
116 -2.9740404104759999e+00 -1.9487729996520000e+00 6.3775470212779997e+00
117 1.7765983469280000e+00 5.5260149780090000e+00 -3.8835268942339997e-02
118 -2.4753865759670002e+00 3.2556324118090002e-01 -1.1901390005279999e+00
119 3.7110116892880001e+00 7.7786760536079997e+00 9.6611819188140002e-01
120 -1.4547170207330000e+00 7.5695600997129997e-01 -1.6166907116689999e+00
121 7.5251918381109997e+00 5.5173657725420000e+00 -4.9417935457160000e+00
122 7.0717512706910002e+00 1.9164554791510000e+00 2.6205088196560000e+00
123 -1.2691438711280001e+00 7.8141483628059998e+00 -4.7230827846430001e+00
124 1.0667636784590000e+01 4.0234728114690004e+00 -1.5875200420960001e+00
125 -1.7932524018060001e+00 4.6842628661239999e-01 2.0542972801569999e+00
126 1.0771793169260000e+00 -1.7138633965940000e+00 3.8861841812070002e+00
127 -4.6098451305779999e+00 3.0076009854670001e+00 7.2808962323910000e+00
128 -1.8956170381769999e-01 8.2927127652690003e-01 -3.3681043055839999e-01
129 -1.6705182306540001e-02 1.6293758230719999e+00 1.3662186694700000e+00
130 2.0215974435030001e-01 -2.2471815564859998e+00 2.8621077833220001e+00
131 1.4308703161840000e+00 -3.4916447776099999e+00 6.1894661362269998e+00
132 1.2640592998269999e+00 6.8808561342000001e+00 -2.4937662994230001e+00
133 -2.4524672517540001e-02 -7.3519074584849999e+00 -4.9255862143440003e+00
134 1.5477256299730000e-01 -3.6979155799050001e-01 -2.0793725406010002e+00
135 -2.4790998384130001e+00 2.4058495723219999e+00 2.8451625857380001e+00
136 -7.1083271339990004e+00 -2.0843413441199998e+00 -9.6138456349610002e-01
137 -2.3666589906839999e+00 -2.1747774102480002e+00 -2.6649238625530001e+00
138 -5.7811050996950000e+00 -2.5925604132659998e+00 9.9582899373319993e+00
139 4.4453241780430002e+00 3.6971908640750001e-01 2.4130226463290000e-01
140 8.6826506669970003e-05 -8.3528066736339994e+00 4.8540383532930003e+00
141 3.1735518911030001e+00 -2.8571188263030001e-02 -4.4873723653489996e+00
142 -1.7311497765310000e+00 -1.0515731017459999e+00 -8.8930346046479993e+00
143 2.3572974556869999e-01 6.3801279809220004e+00 -3.0814357012009999e+00
144 6.0862435899750000e+00 7.2356802337249997e+00 5.1519862144259996e+00
145 7.1722252257830004e+00 -3.6363934841290000e+00 5.0763740642000004e+00
146 3.0896353073210001e+00 5.9785956955730002e-01 -3.9520848194150000e+00
147 -1.0389693636290000e-01 -1.9804884544000001e+00 1.5787042164300000e+00
148 -6.2524113400369998e+00 5.7581302330900002e+00 8.0556437752929995e+00
149 -2.1386734941159999e-01 -1.4815270802570000e+00 -4.5130662071810002e-01
150 2.0380350275310000e+00 -2.6317026689840000e+00 -4.5959850889559997e+00
151 -5.4560400185539999e+00 -1.8941333244070000e+00 -1.3012887961530000e+00
152 3.2269904255510000e+00 4.5326206881040001e+00 -3.7541490306949998e-01
153 7.1153581209930001e+00 2.5408713634010001e+00 -4.3944269722270004e+00
154 3.1019740751920000e+00 7.4096173811099997e-01 7.8297917387740004e+00
155 2.0813020884959998e+00 -1.8072939653789999e+00 5.6815168581449997e+00
156 6.7359336038460000e+00 3.7644645567000001e-01 -2.8099682307339999e+00
157 -4.6793288327850000e+00 6.3184570322809996e-01 1.9675197207060000e+00
158 7.1344229697869999e+00 -7.0617751085779998e+00 1.1288875290869999e+01
159 -9.5373728821050001e+00 2.7689713223529999e+00 5.6363386706660004e+00
160 5.3179941542579998e+00 1.9475905749969999e+00 1.7649475625369999e+00
161 3.7822265111409998e+00 3.8702652586330002e+00 2.1000034377530001e+00
162 2.2183179943070002e+00 2.5331320107740001e+00 -2.3017558949499999e+00
163 2.5660452700150000e+00 -5.4618381691400000e+00 -3.4172389140980002e+00
164 1.0443426200020001e+00 2.1222069191730002e+00 -1.0163478708130000e+01
165 -2.9229967486559998e+00 4.8605914504190002e+00 -1.9468423412250000e+00
166 5.5084883829509996e+00 1.3973327482269999e+00 -5.5455454340660004e-01
167 -2.1412690772279999e+00 -2.7444474896369999e+00 -4.3354962720029997e+00
168 -1.0224773313429999e+01 -3.3633024451789999e+00 3.3247471162280001e-01
169 5.8053655461710001e+00 1.8836504269740000e+00 -1.5562137571070001e+00
170 -4.0168761119190002e+00 7.2410438974390007e-02 -2.2689172438490002e+00
171 -1.3805106286290001e+00 -5.5534178525779998e+00 4.5245366035919998e-01
172 -2.5702735152170000e+00 -7.3426697380429999e+00 6.6276420879959996e+00
173 -7.4643159802019996e+00 2.2310809402070002e+00 -4.1908753987200003e+00
174 3.4882415255230002e+00 -4.0826486856699997e+00 9.5967279631330005e-01
175 9.6737582164809999e-01 -7.2872335980189995e-01 5.9857454492100004e+00
176 -4.0815894614249997e+00 -4.1977991599430000e+00 -7.9864488120590005e-01
177 -4.2885147551339999e+00 -9.9570970544560003e-03 -3.9802879465890001e-01
178 -6.6828480536940003e+00 -4.8271663216410001e+00 -6.0421753115860000e+00
179 -2.0675194117909999e+00 7.4184065712980001e+00 -6.9783955145040002e+00
180 -8.4374908491609997e+00 -1.6771515066220000e-01 -3.3286592302479998e+00
181 1.6487543707979999e+00 -1.6390045841120000e+00 2.3855126891410001e+00
182 -4.2878876325200004e+00 -2.1326504472410002e+00 -6.7393851977450003e-01
183 2.7361074529530001e+00 -3.1804902182090000e+00 2.7701743040319999e+00
184 -1.8896464756219999e+00 2.4850632646980002e+00 3.1674749848459999e-01
185 -8.8728140834440001e+00 -1.8202142577500000e+00 7.1060551996230004e-01
186 5.1674507508770002e+00 -1.9497579040940001e+00 -6.6036888611729996e+00
187 -4.8196487713779996e+00 -2.7076548988839999e+00 -3.0033673388120001e+00
188 -6.1977752178029999e-01 -1.3790764630160000e+00 2.6823611588710001e+00
189 4.7298959870590002e-01 -1.9266791844240001e+00 -1.6828359939619999e+00
190 -1.4773722534530001e+00 -4.0007878828479999e+00 -1.7557717389140000e+00
191 -1.7972383087980000e+00 -1.0475563249690000e-02 -1.7314277042960000e+00
192 -6.5707290045209996e+00 2.0934858481749999e-01 2.7438823588540000e+00
