LAMMPS data file extracted from NVT dump, timestep 620000, units metal

192 atoms
2 atom types

0.0000000000000000e+00 1.6195563468200000e+01 xlo xhi
0.0000000000000000e+00 1.6195563468200000e+01 ylo yhi
0.0000000000000000e+00 1.6195563468200000e+01 zlo zhi

Masses

1 12.00000000
2 16.00000000

Atoms # atomic

1 1 2.8695927185490002e+00 1.4662099275110000e+01 7.0145167057949998e+00
2 1 1.6016727886969999e+01 5.7460175618670002e+00 1.0284079418470000e+01
3 1 8.5058997244760004e+00 9.8975574407329994e+00 1.3315056567439999e+01
4 1 2.3562184640110000e+00 1.0464488714360000e+01 7.5823501282050003e+00
5 1 1.1083661537919999e+01 1.1332252446980000e+01 1.0635637739440000e+01
6 1 1.4328244251179999e+01 2.6253633900020001e+00 6.6559916555149998e+00
7 1 3.1794275107179999e+00 3.8215703263999998e+00 7.2734335271429995e-01
8 1 5.1897382828460001e+00 1.1990110637900001e+01 6.3823875039539999e+00
9 1 8.9643140302479996e+00 1.3882940084239999e+01 8.4846343226519991e+00
10 1 8.7489223492259995e+00 8.6349608246129996e+00 8.7430992494109994e+00
11 1 1.1561552817959999e+01 1.0105369236660000e+01 6.2809646629550002e+00
12 1 8.0490795312729997e+00 8.2507836549439997e+00 5.2156842309420002e+00
13 1 9.3461346874170008e+00 9.6811035672169998e-01 3.6987806108169998e+00
14 1 2.1920012483439999e-01 1.3602254986389999e+01 1.7981515426960000e+00
15 1 7.3737312708039999e+00 9.1245503159630004e-01 1.1953793477940000e+01
16 1 1.6782089208320000e-01 2.5754902114489999e+00 1.2691869809500000e+01
17 1 5.1372945696649996e-01 7.4672566669320002e+00 6.5044863470500003e+00
18 1 1.4395724836019999e+01 1.2158930757020000e+01 4.1578237742419999e+00
19 1 1.6753958911010001e+00 1.0147622069890000e+01 1.1679661831790000e+01
20 1 1.1572735161700001e+01 1.1129844555429999e+01 1.4419436210520001e+01
21 1 6.7957206110410002e+00 1.2132290089360000e+01 1.1731872488420001e+01
22 1 1.4779707297900000e+01 1.0563768767179999e+01 6.6292414793179999e-01
23 1 4.8816710669610002e+00 8.3374927610640004e+00 1.2654400367619999e+01
24 1 1.2134534274020000e+01 7.5631243986390002e+00 1.4822135395329999e+01
25 1 1.2651596301540000e+01 1.3376096201459999e+01 8.3311752030520001e+00
26 1 1.5868841950409999e+01 1.3725452463940000e+01 1.3314359672189999e+01
27 1 5.1757644213029996e+00 6.3275705831730003e+00 7.3374191616119999e+00
28 1 4.8667217100169999e+00 1.4105011410070000e+01 9.8948376978850003e+00
29 1 5.1275680209659997e+00 1.4128447269340001e+01 2.6625254421009998e+00
30 1 1.2222101453350001e+00 3.5352071775340002e+00 5.8813830453089997e+00
31 1 1.2741404218120000e+01 6.3132338683259999e+00 7.7037321540850003e+00
32 1 1.5747890103160000e+01 1.5066996140670000e+01 5.5422940253229998e+00
33 1 1.0771781422389999e+01 5.8353807082260003e+00 1.0696085825380001e+01
34 1 9.5395020595159998e+00 1.4175835741529999e+01 1.3205179229060001e+01
35 1 5.6589517159020000e+00 2.0841225271149999e+00 3.8443982844989999e+00
36 1 1.1632532874210000e+01 9.3438399001659995e+00 2.3292016580719999e+00
37 1 3.7245239579490002e+00 1.5782590262110000e+01 1.3558863231700000e+01
38 1 3.2115678664159999e+00 4.2269522967029998e+00 1.1922710907410000e+01
39 1 1.2848340018569999e+01 1.3922223731720001e+01 -4.9923646361720003e-02
40 1 8.2849306269749992e+00 5.1047526094829996e+00 3.2126074641639999e+00
41 1 4.0050473621020002e+00 2.1769167675020000e+00 7.6284159124780002e+00
42 1 1.1756076914450000e+01 1.9358140214649999e+00 1.3578347211240001e+01
43 1 2.4690346019149998e+00 1.1799406182880000e+01 1.5199918139819999e+01
44 1 1.2200484909960001e+00 1.6213145035789999e+01 1.0076701113870000e+01
45 1 9.0786430332919998e+00 1.1789514251650001e+01 4.2501816179449996e+00
46 1 7.3187658172779999e+00 3.6227560444360001e+00 8.9297512224210003e+00
47 1 1.0853970843160001e+01 1.5186730240210000e+00 9.2301786176080007e+00
48 1 1.3528413159759999e+01 1.5524109239760000e+01 1.1574617445790000e+01
49 1 8.6232912027039994e+00 8.0936257040670001e-01 1.5950870399839999e+01
50 1 1.1423585797570000e+01 3.5927019782160001e+00 5.2295164008060002e+00
51 1 4.6838043993570002e+00 8.1326115822229994e+00 4.0261323559479996e+00
52 1 1.6303967036340001e+01 5.9869394184990004e+00 3.3350907991960002e+00
53 1 7.4010110989919999e+00 4.8787818980080004e+00 1.2466652478189999e+01
54 1 1.4546924863539999e+01 9.3888080902439999e+00 8.9724208245860009e+00
55 1 2.5493451641870002e+00 4.1162302788999999e-01 1.3730526270220000e+00
56 1 2.8207075167020002e-01 6.0978675488269998e+00 1.4037126173300001e+01
57 1 5.2613806367459999e+00 9.8442879075360001e-01 1.5978582499680000e+01
58 1 1.5471065320710000e+01 2.0996179924920000e+00 1.9380817589860000e+00
59 1 8.9013680336029992e+00 1.2901972934240000e+01 5.5773005571230005e-01
60 1 2.4608711403329999e+00 9.6162095321900001e+00 1.4047905919579999e+00
61 1 1.1540145978889999e+01 3.9623196645930001e+00 9.0285785219439996e-01
62 1 6.1784738649669997e+00 6.1551291651950004e+00 5.3556410353840000e-01
63 1 6.6402338414340001e+00 9.8110069318779995e+00 1.3878224908100001e-01
64 1 7.4016548513500000e+00 -5.5052819656730000e-02 6.4415213136740004e+00
65 2 1.8548147829590000e+00 1.4800307444000000e+01 7.6113594238060003e+00
66 2 3.8227476133090001e+00 1.4519988603000000e+01 6.3381396741489997e+00
67 2 1.4869763921870000e+01 5.6866177927230002e+00 1.0050965731610001e+01
68 2 9.0853542951980004e-01 5.9353343958979998e+00 1.0568235407290000e+01
69 2 9.0424914318970000e+00 1.0639718150889999e+01 1.4035176314999999e+01
70 2 8.1480318295740002e+00 9.1806689116280005e+00 1.2478709501550000e+01
71 2 2.8268404671699998e+00 9.4704855550470004e+00 8.0312741801459993e+00
72 2 2.0829280696139998e+00 1.1474788300129999e+01 7.0852483446859997e+00
73 2 1.1500013044139999e+01 1.0345730366050001e+01 1.0117374133949999e+01
74 2 1.0543599241360001e+01 1.2270131962610000e+01 1.1039259692070001e+01
75 2 1.4509187039110000e+01 3.5264681138370002e+00 5.9187515982069998e+00
76 2 1.3989269781490000e+01 1.7954236105050001e+00 7.3666409349700004e+00
77 2 2.5640296478789999e+00 4.4941797338639997e+00 1.6218167812130001e-02
78 2 3.8056310714650001e+00 3.1799093008160000e+00 1.5029225315679999e+00
79 2 5.6801284301610000e+00 1.2017247313250000e+01 7.4699283765880002e+00
80 2 4.7505504938890004e+00 1.1883920047409999e+01 5.3041892212509998e+00
81 2 8.8388189569730002e+00 1.4912681498460000e+01 9.0477351832749999e+00
82 2 9.0494605015960001e+00 1.2835013759100001e+01 7.9548073573920002e+00
83 2 7.7995930462559997e+00 8.7861102883270004e+00 9.4274638577989993e+00
84 2 9.6612922177529992e+00 8.4137160734460004e+00 8.0225452171970009e+00
85 2 1.1136033629800000e+01 9.4113360544429998e+00 5.4371301835930002e+00
86 2 1.1886624039270000e+01 1.0807672753209999e+01 7.1675672774610000e+00
87 2 8.6070401442170006e+00 7.7412736398339996e+00 4.3355919730119998e+00
88 2 7.3817411865649998e+00 8.7263378543990004e+00 6.0743248209349998e+00
89 2 9.2167384845000004e+00 1.6069878183960000e+01 4.1488719246399999e+00
90 2 9.4739959454869993e+00 2.0056876551529998e+00 3.1576934986790000e+00
91 2 1.2792703140810000e+00 1.3107381379510000e+01 1.8447859220800000e+00
92 2 1.5432035534980001e+01 1.4267925095610000e+01 1.8400346442690001e+00
93 2 8.4603488121120005e+00 1.0962745405620000e+00 1.1582926876269999e+01
94 2 6.2679439131079997e+00 8.4008050685110003e-01 1.2327464296150000e+01
95 2 6.9113646560590003e-01 2.7290606480649999e+00 1.1644238425059999e+01
96 2 1.5898898065359999e+01 2.4457222050420002e+00 1.3772523424890000e+01
97 2 9.4102951459819995e-01 8.3482018351150007e+00 5.8761940792820004e+00
98 2 -3.2474801128119998e-02 6.7110552562079997e+00 7.1925845489800002e+00
99 2 1.3268018843680000e+01 1.2366782491750000e+01 3.9255166181719998e+00
100 2 1.5574648983820000e+01 1.2037228908510000e+01 4.3932213930859998e+00
101 2 1.3894437398260000e+00 1.1304513356290000e+01 1.1530068992380000e+01
102 2 2.1118236555299998e+00 9.0757080479429995e+00 1.1894684555010000e+01
103 2 1.1408058733970000e+01 1.1218494875950000e+01 1.5613403541360000e+01
104 2 1.1725196160379999e+01 1.1145588426310001e+01 1.3270131668619999e+01
105 2 7.5627552137259997e+00 1.1949503253300000e+01 1.0807406386809999e+01
106 2 6.1023710837190004e+00 1.2238225886150000e+01 1.2674093078509999e+01
107 2 1.4805196192490000e+01 1.1037938158930000e+01 1.7320372502129999e+00
108 2 1.4907984661260000e+01 1.0056840009240000e+01 1.5807845826370000e+01
109 2 4.6494108584650000e+00 9.1793134380550008e+00 1.3443291246179999e+01
110 2 5.0228465739550003e+00 7.4733547110099998e+00 1.1817242926900001e+01
111 2 1.1097361928730001e+01 8.1788264364530008e+00 1.4657974485930000e+01
112 2 1.3101185499360000e+01 6.9184425187390000e+00 1.5127941132280000e+01
113 2 1.2072286402610001e+01 1.3974420638600000e+01 7.4966604496610003e+00
114 2 1.3218777178210001e+01 1.2700746071910000e+01 9.1127233126989999e+00
115 2 5.0627440337899998e-01 1.4396574006750001e+01 1.3773614603580000e+01
116 2 1.5049821557820000e+01 1.3047784684550001e+01 1.2807516212790000e+01
117 2 5.5871224750649997e+00 6.6792837092350004e+00 8.3802862922829995e+00
118 2 4.7283443417719999e+00 6.0405832801410000e+00 6.2816330296030003e+00
119 2 3.9046147403289999e+00 1.3430907509240001e+01 9.9054947896869994e+00
120 2 5.9233754218780001e+00 1.4592130391000000e+01 1.0034315767540001e+01
121 2 3.9511934073870001e+00 1.4352269225020001e+01 2.5705786531240000e+00
122 2 6.2717020956870000e+00 1.3899440460539999e+01 2.8253513370480001e+00
123 2 1.2605279937510001e+00 4.5802813345090003e+00 5.3308097014640001e+00
124 2 1.1283995019790001e+00 2.4523603917019998e+00 6.3673039188849998e+00
125 2 1.2937532242440000e+01 7.4507794677190002e+00 7.8063852361530000e+00
126 2 1.2487477074459999e+01 5.1703906461980003e+00 7.6564399401549998e+00
127 2 1.4994082082249999e+01 1.4886079915870001e+01 6.4214332849200000e+00
128 2 3.0306746938040002e-01 1.5324233145070000e+01 4.6878770772750000e+00
129 2 1.0474234691410000e+01 6.9565529504840002e+00 1.0443476981820000e+01
130 2 1.1114437249440000e+01 4.7365618048459996e+00 1.0833528964719999e+01
131 2 8.4439214204130000e+00 1.4557287716210000e+01 1.3002185878110000e+01
132 2 1.0638595394959999e+01 1.3855940994770000e+01 1.3454539657040000e+01
133 2 5.6194906076809996e+00 3.2631366035189999e+00 3.7621022044510002e+00
134 2 5.6800510952819998e+00 9.2228530656529994e-01 4.0239386289120000e+00
135 2 1.2666314578940000e+01 8.7965419944519994e+00 2.3287144459480000e+00
136 2 1.0559978458530001e+01 9.9273222381580002e+00 2.2543270416770000e+00
137 2 2.8145900315649999e+00 1.6401288123710000e+01 1.3121184461260000e+01
138 2 4.5030695493380000e+00 1.5027768610750000e+01 1.4034910803820001e+01
139 2 3.0617039803149999e+00 4.5182058488030004e+00 1.3057464187350000e+01
140 2 3.5015514748870000e+00 3.9922466295970001e+00 1.0813971485770001e+01
141 2 1.2069118173320000e+01 1.4224366806920001e+01 7.8491727585460003e-01
142 2 1.3543279193080000e+01 1.3496880392740000e+01 1.5270185708580000e+01
143 2 8.5592050714849996e+00 5.2181865690649998e+00 2.0818728785350000e+00
144 2 7.9593371936360002e+00 4.9218441607610002e+00 4.3037720498269998e+00
145 2 4.2704405815789999e+00 1.0298748673800000e+00 7.5343617122700000e+00
146 2 3.6247157414780000e+00 3.2849166641570000e+00 7.7833411345999997e+00
147 2 1.1112134444240001e+01 1.0351329455739999e+00 1.3901826836010001e+01
148 2 1.2430338638860000e+01 2.8626865063019999e+00 1.3322425033549999e+01
149 2 3.4715914631200002e+00 1.2323283019710001e+01 1.5149843889580000e+01
150 2 1.4379088872579999e+00 1.1320464498770001e+01 1.5212589189370000e+01
151 2 1.9347486730229999e+00 8.9370185284699999e-01 9.9351608152209998e+00
152 2 3.7283896096699998e-01 1.5435948865980000e+01 1.0316217667169999e+01
153 2 8.1558993482729996e+00 1.1073264228070000e+01 4.3982834972690004e+00
154 2 1.0051384243230000e+01 1.2482986668390000e+01 4.2148881835419996e+00
155 2 6.6446237893470004e+00 2.6735604703829998e+00 9.1683336268439994e+00
156 2 7.9974916780890002e+00 4.5422019738820003e+00 8.6299270122070002e+00
157 2 1.1594046151450000e+01 1.7063944407770000e+00 1.0128609151739999e+01
158 2 1.0284898837460000e+01 1.4468194481290000e+00 8.2282629768660005e+00
159 2 1.3001260547530000e+01 1.4961449475149999e+01 1.0711842339089999e+01
160 2 1.4102629000260000e+01 1.6084708349029999e+01 1.2450443780030000e+01
161 2 8.0841124451790005e+00 1.4714156049220000e+00 1.5115706822780000e+01
162 2 9.1077676645279997e+00 1.8761842134480000e-01 5.8690391060960001e-01
163 2 1.1436790237989999e+01 4.6938326445190004e+00 4.7902777587410004e+00
164 2 1.1369912059330000e+01 2.4967623359200002e+00 5.6274618889010002e+00
165 2 3.6207106229430002e+00 8.1354951852450004e+00 4.5651826836650002e+00
166 2 5.6809634378800000e+00 8.2032642824249997e+00 3.4079547694799999e+00
167 2 1.0604646761350001e+00 6.0146881871710001e+00 2.6304871848650002e+00
168 2 1.5380725365240000e+01 5.9594365335450004e+00 4.0407796896810000e+00
169 2 8.1568563778869994e+00 5.6158928403250004e+00 1.1942507414370001e+01
170 2 6.5795202002990001e+00 4.2505156025930004e+00 1.2971034411190001e+01
171 2 1.4752817282210000e+01 9.8635709150360000e+00 7.8818876911439997e+00
172 2 1.4440655899039999e+01 9.1327495491369994e+00 1.0119234880220001e+01
173 2 2.5722233815509998e+00 3.3922111290899998e-01 2.1773640999370000e-01
174 2 2.5940138028900002e+00 5.1569473728479998e-01 2.5289584771570000e+00
175 2 7.6183648609819998e-01 7.0338002462629996e+00 1.4565321791180001e+01
176 2 1.5985986161950001e+01 5.2377235179869999e+00 1.3403397898540000e+01
177 2 5.5884290280439997e+00 1.9144209529440001e-01 6.0771559622240001e-01
178 2 4.9195236499439998e+00 1.7749987798680000e+00 1.5160579999250000e+01
179 2 1.5782636090300000e+01 2.1695898299379999e+00 3.0921606660440002e+00
180 2 1.5182806859270000e+01 1.9420611731130000e+00 8.0935344699379996e-01
181 2 8.1217709596700001e+00 1.3678445915050000e+01 1.6253711557140001e+01
182 2 9.6794022317219994e+00 1.2177686039190000e+01 1.0702095188680001e+00
183 2 2.8972786104949999e+00 9.0302525360249994e+00 4.1342699797810001e-01
184 2 2.0335895030200000e+00 1.0111989297019999e+01 2.4050652319550001e+00
185 2 1.1775827386230000e+01 5.0314778266679996e+00 1.3781198799490000e+00
186 2 1.1469189807490000e+01 2.8403579832860002e+00 4.7510418034450003e-01
187 2 5.8721065621050004e+00 5.1576731631500001e+00 1.6210214544890000e+01
188 2 6.4063172785880003e+00 7.1954315470710002e+00 1.0650230237809999e+00
189 2 6.9853070864879996e+00 9.2027373181079994e+00 1.5366557162059999e+01
190 2 6.4409073878810004e+00 1.0315105816210000e+01 1.1619751924590001e+00
191 2 7.5563872407870001e+00 1.1047372444560000e+00 6.5481156888370000e+00
192 2 7.2549521065670000e+00 1.4969801014310001e+01 6.3361547184539999e+00

Velocities

1 -3.3814971317209999e+00 2.9867449798440000e+00 -8.1539978861550004e+00
2 3.8346802810049998e+00 6.6601698838529999e-01 -4.4241210454340002e-01
3 -1.0224300445300001e+00 -1.9026229796030001e+00 3.6331488818489999e+00
4 1.8699553621920000e+00 1.4403984729679999e+00 1.8002742213930001e-01
5 -1.8396023047579999e+00 -4.6032969747159997e+00 -2.3377390448390001e+00
6 5.3502554968789999e+00 -1.6423776753879999e+00 -1.1056979851390000e+01
7 6.7626979168709997e+00 4.7380388262739997e-01 1.3544424418100001e+00
8 -7.4397110700549995e-02 2.6534274136140001e+00 -2.8188451193590001e+00
9 -5.1165156590969998e+00 -4.1141629071810000e+00 3.0571029527809999e+00
10 6.8855933172460004e-01 6.8616255504919996e+00 9.5085213220429998e-01
11 -1.6869466282340000e+00 1.7332698658679999e+00 -2.4193960507300001e+00
12 -1.1512324968779999e+00 -9.1695670954010000e-01 -4.9123950374740000e+00
13 -4.0374847360050001e+00 3.7578836856750000e+00 2.0923632443330001e-01
14 1.9723587594990000e+00 5.2582734889209997e+00 1.1286568606760000e+01
15 -5.3098689000550001e+00 -1.2274369906590000e+01 -3.3049183683440000e+00
16 -1.1694261048560000e+00 8.3326728378849992e+00 -6.8689096637220004e+00
17 -4.2166447457640004e+00 -6.2320129729879996e+00 9.9018764538799999e+00
18 4.4203066011440004e+00 -3.8828722878080000e+00 4.2423701982730000e+00
19 -1.3730910855380001e+00 -3.8624879954750000e+00 3.9671162606000001e+00
20 -5.0783739637860004e+00 -2.5096160681019999e+00 6.7135818187360004e+00
21 -1.9287694690170001e-01 6.1628515657950000e+00 5.5387279196160000e+00
22 -3.6222998394990000e+00 2.4521126714519998e+00 3.7771818328940001e+00
23 -7.7327414726910004e-01 -4.5282246756850002e+00 -6.2048462080200002e+00
24 -3.9917598330980000e+00 -4.4408063838530003e+00 2.4014982961130000e+00
25 -3.3808203270839998e+00 -3.7426897332490001e+00 5.3703417288540001e+00
26 7.3163250243720002e-01 -1.9465277706540001e+00 -7.4751331446989999e+00
27 -9.3219909628960007e+00 -3.6069449652899999e+00 -1.8396684796030001e+00
28 2.3024224419990000e-01 5.8550321493200004e+00 3.9636443184529999e+00
29 -5.3495535535079997e+00 -6.4413623005380005e-01 -1.5029311601080000e+00
30 1.3097399481520000e+00 5.7760561863710000e+00 -4.2210589997249999e+00
31 -5.8739650003920003e+00 5.5773048015209999e-02 2.6642953138530001e+00
32 4.0290469747680002e-01 -1.4354072170890000e+00 -6.2608403224710001e+00
33 2.1963809351850001e+00 -1.0780457998739999e+01 3.1248695506000002e-01
34 1.1221693325860000e+00 -3.8394762071269999e+00 5.4058626952220001e-01
35 9.1539211186720004e-01 -3.5598965953440000e+00 -6.6541544503949996e+00
36 -4.5642821786030002e-01 -8.0109637756679994e+00 -1.2971334117780000e+01
37 3.6336245462940000e+00 2.6160483579989999e+00 -2.7666389693409998e+00
38 2.9944622280219999e+00 7.2919355195959996e+00 1.2108468113169999e+00
39 3.5524697879259999e+00 -4.4589289437269999e+00 -4.7175928126019997e+00
40 -4.4254709111630000e+00 -6.2704090864020001e-01 -3.6502034678099999e+00
41 3.3293573110649999e+00 2.0730504790939999e+00 -6.2025899126650001e+00
42 8.4299810163379991e+00 -1.5224112897519999e+00 3.1935883799050000e+00
43 -4.5149258728130004e+00 4.0940026388120003e+00 -1.5477410904480000e+00
44 1.0727067228310000e-01 2.4387813753160001e+00 -3.6921938244730002e+00
45 3.3972310568530002e+00 1.3816487652809999e+00 6.5361771451399999e+00
46 -3.8085090378719999e-01 -1.2675981736710000e+00 2.2980951627250001e+00
47 3.7608057541930000e+00 -1.3054550364000001e+01 2.6338922396319999e+00
48 3.0732722419020000e+00 2.3016602270969999e+00 -4.9857387461589999e+00
49 -6.0372571420940002e-01 2.3463199577040000e-01 -5.1579962739629996e+00
50 -6.8547070814540003e+00 -4.1628645834210003e+00 -7.7222374610699998e+00
51 -8.6270358922370001e+00 -3.9651399165350001e+00 3.0398247437890000e+00
52 4.6830674115899997e+00 -6.8882487481019998e+00 -1.0323205549470000e+01
53 -6.2953989589950003e+00 5.8317405811520000e-02 8.2653705266339994e+00
54 -1.7971381392100001e+00 1.3125795017549999e+00 4.5009350536010002e+00
55 -1.8647634739550001e+00 -2.8388761140210002e+00 3.6640193051229999e+00
56 1.7561028694570000e+00 -2.9616639033049998e+00 5.0979383774049998e+00
57 -2.2383381193859999e+00 -6.9430129726379999e+00 2.3023893679929999e+00
58 3.8645059852779999e+00 -2.0928369505269999e+00 6.1921187926550001e+00
59 1.3474812821440001e+00 4.7318599866589999e+00 -1.8730275681749999e+00
60 -3.1411997339450002e+00 -3.8316472169029998e+00 -3.0227377581180002e+00
61 -4.0151506700209998e+00 -1.9238747014319999e+00 -3.5819623248700001e+00
62 3.1059832087000000e-01 -9.8433000799160002e+00 3.5148319269880002e+00
63 6.2692752198679997e+00 -1.6527988591539999e+00 8.4556647384369992e+00
64 3.3011188073370001e-01 -1.3088108198280000e+00 1.0944475302990000e+01
65 -2.9143430150800000e+00 9.0434582061619995e-01 6.9801694082430004e+00
66 -4.2174512065999998e+00 -4.9175119923999997e+00 2.3766593504900002e+00
67 6.1627958250140003e+00 6.5373785822529999e+00 1.4402570465119999e-01
68 -1.9385322747689999e+00 7.2321260026390000e-01 2.3487072533419999e+00
69 1.9936023609460001e+00 2.7351794534770002e-01 5.3311235293759998e+00
70 1.1958413609509999e+00 4.3431404685309998e+00 -2.8254035760040002e+00
71 -1.0426361750520000e+01 -6.5377128457870004e+00 -4.5541320232320004e+00
72 -6.1693575451670002e-01 3.0614413433109999e+00 4.9721135269839998e+00
73 7.1074938578570002e-01 -1.1255644793449999e+00 4.0111338877420000e+00
74 1.6473173232980001e-01 -8.2546927022509997e-01 3.9932728821660000e+00
75 1.8311537833180001e+00 6.6633847481509996e+00 1.0874177542720000e+00
76 -2.6395968813449999e-01 7.0162282384820003e+00 4.0962401466150000e+00
77 -6.1312095469020003e+00 -4.8820095669230001e+00 -3.5443302516810000e+00
78 -4.5635533190639999e+00 -4.2786106081890002e-01 -7.1176304846909999e-01
79 -8.6789279726780000e-01 2.9424588045309998e+00 3.9268500844830001e+00
80 -2.8601477399820001e+00 -1.5273714276160000e+00 -2.8090384580720000e+00
81 4.8958175691949997e+00 7.4576358345170002e+00 -2.5757640109469998e-01
82 -6.3759116827610001e+00 -2.7920693211590000e+00 -4.9868533710860001e+00
83 -1.8624821037999999e+00 9.8723082548739995e+00 -6.0203881051749999e+00
84 2.7467884129550000e+00 4.0195330228400001e+00 -9.7842231980710004e-01
85 7.5186257573099997e+00 1.2898442954730001e+00 6.6850597204269997e+00
86 7.8801593086489996e-01 -7.2840327170090002e-01 -2.3584592987509998e+00
87 1.5522477746540000e+00 1.0569909510969999e+00 -9.3466165098940002e-01
88 1.9297961171730000e+00 -8.3592677041079995e+00 4.9052573810600002e+00
89 6.0593758550400001e-01 -1.1942191641210000e+00 9.4953082682419998e-01
90 -1.3283536495129999e+00 -1.2381288335680001e+00 5.2847819047720002e+00
91 9.4970611933460003e-01 2.0446881849510001e+00 -2.4849941862380001e+00
92 1.7222409543260000e+00 3.3616675413800001e+00 -5.4086995043260000e+00
93 2.7507634880410001e+00 6.7499711243979998e+00 5.1377546617289997e+00
94 -3.8708213775779998e+00 -1.6162861065620000e+00 5.5415728391289996e+00
95 6.6139615445120004e-01 -3.5247920284249998e+00 -1.3145703570809999e+00
96 -7.7717773763209996e-01 5.2817443815410003e+00 1.4812850633570001e+00
97 5.3791602307720003e+00 8.8904591324009996e-01 -1.2441388841230001e+00
98 -1.5732166801870001e-01 6.6171412695520004e+00 1.2077223677030000e+00
99 -1.9311265075380000e+00 -1.2632549494730001e+00 -1.0628949089469999e+00
100 -4.1047338865130003e+00 -9.4136544413190004e-01 -1.9852495188120001e+00
101 -1.2995158140950001e+00 4.1682253135950003e+00 -1.6048748779660000e+00
102 -1.7615350982580000e+00 -7.0029133762509996e+00 3.6584811747960000e+00
103 3.6380418498270002e+00 4.8223495560360004e+00 -3.6120690967500000e+00
104 -3.8340974934480001e+00 5.2090680179910001e+00 2.0144077964679998e+00
105 -8.8265120001100001e+00 -2.0574955660110001e+00 1.7101380395179999e+00
106 3.8724868975710001e+00 -2.2570225149369998e+00 4.9159595726010004e+00
107 -7.8292950797759997e-01 6.8418290386529995e-02 -5.9689744650360002e+00
108 -3.0675240083649999e+00 -5.2065088421699999e+00 -4.1877425882629998e-01
109 5.1749337178669998e+00 3.7218548066569999e+00 1.8391037060439999e-01
110 -4.1514801727919997e+00 3.0259466411620002e+00 -3.3440112037160001e+00
111 1.6533270516059999e+00 4.7453804464429999e-01 -3.5108950520770001e+00
112 8.4619451566079995e-01 -3.8080657748750002e+00 4.7770955327709999e+00
113 6.2255387031699998e+00 -1.1212750017230000e+00 8.8370186433169995e-01
114 -5.8529734881679998e+00 2.5452511547649999e+00 -2.6803529679749998e+00
115 3.6545740985139998e+00 2.5443030833489999e+00 5.3865047042920002e+00
116 -1.2928844484669999e+00 2.8729433341799999e+00 -2.4967288859200001e+00
117 1.7596671797230001e-01 1.9592635050570001e-01 -5.6966485914630005e-01
118 6.4550306906010002e-01 1.6963560770740000e+00 1.9963266875400001e+00
119 2.3371164686079999e+00 -1.6071332074489999e+00 -9.2172967612229995e-01
120 4.6024077664230001e+00 3.7850269189070000e+00 1.1722623486549999e+00
121 -2.7775947906080001e-01 5.4841489118310003e+00 -2.2651056259160001e+00
122 6.9040936945999998e-01 1.6650256593510000e+00 1.5319113144470000e+00
123 1.7661880667350001e+00 -2.4770325971029998e+00 -1.5197976159690001e+00
124 -8.1242523138650002e-01 9.8789337218310003e-01 8.2033817298669998e-01
125 -5.5818300353679995e-01 -7.5480410416749999e+00 5.5545870935410004e+00
126 4.0068256747420000e-01 -5.0332839425099998e+00 -4.4282186987339998e+00
127 5.1836294858610001e+00 -1.2118910444719999e+00 2.1105279067759999e+00
128 -2.5748943026380000e+00 -1.2348083876030000e-01 -9.1554119742289997e-01
129 2.3787301800299998e+00 -8.0055326005750005e-01 -2.6547963970250001e+00
130 5.6409152283889998e+00 -2.2730799392060002e+00 1.5879030347109999e+00
131 -2.4568963973950000e-01 -1.8952915982440000e+00 -8.7178596022940003e-01
132 -4.2261033744810002e+00 -1.9712487704549999e+00 4.8688105452489996e+00
133 -1.6659434396080000e+00 -5.6696867024320002e-02 -9.6358328314609998e-01
134 -4.1058679923780002e+00 -3.5218850847000001e+00 -5.0605872246410000e+00
135 1.5601277880200000e+00 -1.3040373479990000e+00 -3.5512167835959998e+00
136 7.7659212707950003e+00 -5.7113748526919998e+00 7.3376349243160000e-01
137 -2.6786742178140002e+00 3.0379490791110002e+00 -1.7892553063840000e+00
138 -3.3945499718550001e+00 -1.7645213617440001e+00 -3.6388950743009998e+00
139 1.0804678986570000e+00 3.8443813168780001e+00 -3.9947995723290002e+00
140 2.4861286144960002e+00 2.7027597955720002e+00 -2.0637088391330001e+00
141 3.4748749484500001e+00 9.5070244137939997e-01 -2.2987077795180002e+00
142 -1.9936683470959999e+00 2.1076760325590000e+00 -2.2571642496809998e+00
143 1.5427244462450000e+00 3.5201598125350002e+00 -2.2203291414069999e+00
144 -8.4648866445039994e-02 1.7537021294520001e+00 1.4533713731710001e+00
145 -2.5777136752030000e-01 -1.6727205560030001e-01 -3.0238707407429999e+00
146 7.6366428241330002e+00 -3.7613570239660001e+00 2.7029960212019999e-01
147 1.7689060918020001e+00 1.1796046249570000e+00 -5.6009428842330000e-01
148 1.6671167860130001e+00 3.4882528426750001e+00 4.8908888056919997e+00
149 2.3474819128590001e-02 -2.9089165006930000e+00 -5.6353730434470002e+00
150 -4.4659514321870004e+00 -6.8216078410450001e+00 7.8567798476249999e+00
151 -3.2385968837900001e+00 -3.0466385958590001e+00 -6.9547532032110002e+00
152 -4.0156216927810000e+00 6.2472095803269996e+00 -8.6623397564650002e+00
153 8.9361591108049998e-01 3.9898263760630002e+00 -2.1036321108450000e+00
154 4.4377215118029998e+00 -6.7663696366149999e+00 1.9556211265600001e+00
155 2.7058449150150001e+00 2.0527947128449999e+00 -4.1910645469089998e+00
156 2.7860326677749998e+00 5.8317256094920000e-01 4.3774938542610000e+00
157 4.7988325548089996e+00 -1.8986322589080000e+00 -1.1330145783429999e+00
158 2.4544862062060000e+00 8.3548784757379995e+00 4.4794051030380000e-01
159 8.2563958890019995e-01 2.0724361579510000e+00 1.1180117327640000e+00
160 9.2231128140129996e+00 4.4633846187549997e+00 9.3735310495479995e-01
161 1.3767676244680001e+00 7.0732218246750000e-01 4.4075570604319996e+00
162 2.6163855447650000e+00 -2.5088033696290002e+00 2.3600876119650001e+00
163 8.8832428858599999e-01 5.6381472626480003e+00 -7.8301806589060003e+00
164 4.7964155395089998e+00 2.8584488827109999e+00 4.8823475185240001e-01
165 9.2841980852950001e-01 1.5117289962060001e+00 2.1427495982439999e+00
166 2.1522988195580002e+00 8.2771756798600005e-01 1.1087841404370000e+00
167 2.9455562050610000e+00 2.2701325922729998e+00 -3.6244871841230002e+00
168 -5.5168809298579999e+00 -1.3921931519670001e+00 -7.7553178685989999e-01
169 -7.3920412288799997e-01 7.3253076125360002e+00 -4.1710218508140002e+00
170 -5.8412070745630000e+00 -2.9221682415640000e+00 1.0389819363100001e+01
171 1.3205293829300000e+00 -9.5139690442460001e-01 -1.7880208420659999e-01
172 -7.2723688388870000e+00 3.2059122729839999e+00 -5.7473700214570000e-01
173 -4.0581000459789998e+00 -5.4960642328139997e-01 -1.2162997282940000e+00
174 -7.1159413681129999e+00 -2.3502874754479999e+00 2.4841082922709998e+00
175 1.0705513369640000e-01 -1.9103388034219999e+00 4.8995793176750002e+00
176 -2.6656617397079998e+00 1.4769802817400000e+00 2.5892186934560000e+00
177 1.6340471451609999e+00 2.6388147840820002e+00 4.1317176023000002e-01
178 2.7079213551870001e+00 7.9402361953769995e-01 6.9141620936279997e+00
179 3.7021246303110000e-01 6.6231597456770004e+00 -3.3036681813370001e+00
180 -2.2005825710660001e+00 5.8998715004059998e-01 -5.2482566604649996e+00
181 -6.2830063112779999e-01 1.9663424709080000e+00 2.7596561988519999e+00
182 -1.3189815594370000e+00 -3.9755701714640002e+00 -2.4709927187599998e+00
183 3.2391182987730001e+00 4.3629923369309997e+00 1.2875832958919999e+00
184 9.2149024323099997e+00 -9.2603322997700008e+00 -8.9490146053710001e-02
185 -6.1961934924530002e+00 -1.0994410342650001e+00 -1.1121102220379999e+00
186 -2.9488906858870001e-01 4.2516927293400002e+00 2.0789327357800000e+00
187 1.6210670831350000e+00 4.4677187041480000e+00 1.1687398167070000e+00
188 2.2527735438340000e+00 -1.4119205833340001e+00 2.4690298885100001e-01
189 1.2395124619710001e+00 -5.5569188199059996e+00 -3.3612483562979998e+00
190 -1.3880295353300001e-01 -5.4304230522920003e+00 -4.7656721340999999e+00
191 2.2050954895430000e-01 -3.8343234101690000e+00 2.1770114584620002e+00
192 -1.6490541783870001e+00 -9.4504650640510002e-01 -4.2095331595960001e-01
