LAMMPS data file extracted from NVT dump, timestep 1700000, units metal

192 atoms
2 atom types

0.0000000000000000e+00 1.6195563468200000e+01 xlo xhi
0.0000000000000000e+00 1.6195563468200000e+01 ylo yhi
0.0000000000000000e+00 1.6195563468200000e+01 zlo zhi

Masses

1 12.00000000
2 16.00000000

Atoms # atomic

1 1 5.5949696964870004e+00 6.1848537159090000e+00 1.0389969115170000e+01
2 1 1.1898523081310000e+00 1.5426535816259999e+01 9.5043753325509996e+00
3 1 1.3728996526920000e+01 9.3408275273889991e+00 1.5550208475589999e+00
4 1 9.5396806823159999e+00 9.7759833093089998e-01 9.3764832155960001e+00
5 1 7.0305965359600000e+00 1.2206175787410001e+00 5.1567707415150004e+00
6 1 6.4822643536209998e+00 1.3963829044270000e+01 7.5623598547209996e+00
7 1 2.1334223285400000e+00 7.4925398174689999e+00 8.7121604882739998e+00
8 1 4.7677103452270000e+00 1.4594603138420000e+01 5.2615972505279995e-01
9 1 5.5294827808530000e-01 2.6506754193650002e+00 5.7222015665869996e+00
10 1 1.7587672875000000e+00 1.2126407200150000e+01 7.0807263390079997e+00
11 1 9.1371048333449991e+00 9.9286086115369994e+00 6.7240540490170000e+00
12 1 1.4843589940119999e+01 1.6410979306100000e+00 1.1823094804100000e+01
13 1 1.4376467773820000e+01 6.3587112160460002e-01 2.5058160161080001e+00
14 1 1.5996708204650000e+01 6.6009867441430004e+00 1.4549706041940000e+01
15 1 9.7908600672830008e+00 4.9653459285029999e+00 9.9051484924760000e+00
16 1 1.3765708793510001e+01 8.4928151754390004e+00 6.2965732188150003e+00
17 1 6.4796737854280000e+00 9.8163731845480005e+00 1.4777064979720000e+01
18 1 1.6130251620730001e+00 1.5793764367400000e+01 1.2978981309990001e+01
19 1 1.3376426467410001e+01 1.3249971497290000e+01 2.1288956282479998e+00
20 1 9.7335973692020001e+00 6.9818616747780000e+00 1.4094238997230001e+01
21 1 1.4027452278180000e+01 2.4850367509989999e+00 1.5031597296839999e+01
22 1 1.3524672133379999e+01 5.1356533128799997e+00 8.2758607665039996e+00
23 1 6.6493130628020003e+00 1.0529915056769999e+01 1.0294185650219999e+01
24 1 1.5411304968370001e+01 1.0583191572310000e+01 1.4958750191009999e+01
25 1 4.8052741301230002e+00 3.5238025012640000e+00 2.5943495071389999e+00
26 1 3.5656488506159998e+00 1.0085574524580000e+01 5.7206191904240000e-01
27 1 3.5635710096300000e+00 6.2827506931989996e+00 1.6096997766769999e+01
28 1 1.3918386554260000e+01 1.2155808497840001e+01 8.5300831096070002e+00
29 1 1.0568299156309999e+01 1.3426898580490001e+01 8.3570386655199993e+00
30 1 1.1284815735740001e+01 1.0344131005140000e+01 1.4099111329510000e+01
31 1 3.5921347451860002e+00 3.6158461864250002e+00 6.5154166605709998e+00
32 1 6.7156472991299996e+00 1.2398842898170001e+01 3.3317027505270000e+00
33 1 4.4789854741289998e+00 1.4188242582179999e+01 1.2030424744539999e+01
34 1 6.6102444125339996e+00 6.8850445078339995e-01 1.4102114686629999e+01
35 1 3.2926161537260001e+00 9.5614145808799993e+00 1.2936633724960000e+01
36 1 7.8044085174509998e+00 3.5669199842179999e+00 1.2411484058240001e+00
37 1 1.2680694998250001e+01 6.8988184987430001e+00 1.4781812817040000e-02
38 1 1.0330963006479999e+01 9.1284391102069993e+00 9.5270729135340009e+00
39 1 1.0319465406030000e+01 1.4568595968860001e+00 1.7436433021340001e+00
40 1 2.6225638868719998e+00 1.6095082123800001e+01 5.6032399679439999e+00
41 1 1.1529834426220001e+01 1.5878955898379999e+01 1.3880708358380000e+01
42 1 1.5008268676170000e+00 1.4051766584720000e+00 1.6156875683950001e+00
43 1 9.5690679361369995e+00 1.3610199311040001e+01 8.1368622444509997e-01
44 1 5.2707022242579997e+00 1.1172524388150000e+00 9.3755906558850004e+00
45 1 1.4890425075420000e+01 1.4113659830500000e+01 1.5094892182570000e+01
46 1 3.0433360259620001e+00 4.2761191078450000e+00 1.0425996597910000e+01
47 1 2.2787331204560002e+00 1.1708745130540001e+01 3.8496635992349999e+00
48 1 1.4761141028790000e+01 8.8863302803809994e+00 1.1381369892410000e+01
49 1 1.0500279005059999e+01 6.5843932033260000e+00 3.5729987105809999e+00
50 1 1.0445952629520001e+01 1.4297235253969999e+01 4.6131166704149997e+00
51 1 5.0562834961099998e+00 1.0016855496960000e+01 6.3514511507000000e+00
52 1 6.5545097508010004e+00 6.1966541776820003e+00 5.5365714449210000e+00
53 1 1.2167253158899999e+01 2.9968457377019999e+00 5.4553053147629997e+00
54 1 1.1757516011000000e+01 1.2608323510320000e+01 1.1949011430370000e+01
55 1 7.1697723958189998e+00 5.0739776490760002e+00 1.3838268239370001e+01
56 1 1.3616415563469999e+01 3.1346803598919998e-01 8.4635893711579993e+00
57 1 2.3806659358480000e+00 3.4479504952850002e+00 1.4475048570140000e+01
58 1 1.0329970077540001e+00 1.1801512861810000e+01 1.1154906879609999e+01
59 1 9.2687902420739992e+00 9.9199828997930002e+00 1.2013607161469999e+00
60 1 2.3545765738730000e+00 7.1598614617410004e+00 3.7718134812219999e+00
61 1 1.0148372111930000e+01 2.5110292873100000e+00 1.2993045059250001e+01
62 1 1.5200366595249999e+01 4.8019251231280000e+00 2.8296041717040001e+00
63 1 1.5694445896040000e+01 1.5107883318590000e+01 5.4260485484909999e+00
64 1 6.2297005742189997e+00 7.8545970651179999e+00 2.0338771053209999e+00
65 2 5.9668791035430004e+00 5.4046596812559997e+00 1.1182134557500000e+01
66 2 5.3029075206060003e+00 6.9735428455479997e+00 9.5702809947279999e+00
67 2 8.1882046447140000e-01 1.4611259032050000e+01 8.7324730405960000e+00
68 2 1.6497708901749999e+00 1.8807678390359999e-02 1.0251105745720000e+01
69 2 1.2582104118240000e+01 9.5252866546509996e+00 1.8166085163940000e+00
70 2 1.4893514878680000e+01 9.1594973574799994e+00 1.3783342488970001e+00
71 2 1.0556870915239999e+01 1.0510845675739999e+00 9.9264233909260007e+00
72 2 8.5165167624250007e+00 9.0283532965460001e-01 8.7455020159870003e+00
73 2 6.2064802282070000e+00 5.1261477925300003e-01 5.5950530798980003e+00
74 2 7.8175605477160000e+00 1.9916677822900000e+00 4.6568814774279996e+00
75 2 5.3981670521979996e+00 1.3520888059520001e+01 7.7725171691329997e+00
76 2 7.5567306853889997e+00 1.4419021922370000e+01 7.2903863735629999e+00
77 2 2.5851615792580001e+00 7.6080859913670000e+00 9.8023245296389998e+00
78 2 1.7626687211620000e+00 7.2731048821720004e+00 7.6040567919730000e+00
79 2 3.9374225478949998e+00 1.4538390097640001e+01 1.3499313659020000e+00
80 2 5.6323984479689999e+00 1.4506239177259999e+01 1.5901842486100000e+01
81 2 4.3975041246850000e-01 2.8906524988330000e+00 4.5938592912700003e+00
82 2 6.5579002463780001e-01 2.4393678517990001e+00 6.8444343530380003e+00
83 2 2.6744755943779999e+00 1.2090882760090000e+01 7.8290890244559996e+00
84 2 8.4973945075540003e-01 1.2094428017580000e+01 6.3266858641599999e+00
85 2 8.3653342138590006e+00 1.0278802050860000e+01 7.5289924473239997e+00
86 2 9.8278794177200002e+00 9.5775484891030001e+00 5.8390398805129999e+00
87 2 1.3961795763950001e+01 8.5837458855670001e-01 1.1839278466340000e+01
88 2 1.5687399413780000e+01 2.4385020733420002e+00 1.1681528109600000e+01
89 2 1.3955085529360000e+01 6.5491841860040001e-01 3.5810603037700002e+00
90 2 1.4763832011730001e+01 7.0366514681930004e-01 1.4041107365290000e+00
91 2 1.5922291158520000e+01 6.0813313338530000e+00 1.3508514422779999e+01
92 2 1.5813992082650000e+01 7.2171680672080001e+00 1.5561336183150001e+01
93 2 9.2820629023919992e+00 4.1272562246420001e+00 9.2602164543490009e+00
94 2 1.0326724820160001e+01 5.7351654037640003e+00 1.0610706213169999e+01
95 2 1.2710924978790000e+01 8.0137348214339994e+00 6.1514055782210004e+00
96 2 1.4738896538040001e+01 9.0635920970619992e+00 6.5122250422189998e+00
97 2 5.6173422961860000e+00 8.9790114608629992e+00 1.4625121648740000e+01
98 2 7.3828575297850003e+00 1.0528497310940001e+01 1.4993502614060001e+01
99 2 5.3467736641999997e-01 1.5340607362249999e+01 1.3105145721880000e+01
100 2 2.7233695560280000e+00 -2.1990321978250000e-04 1.2862341243940000e+01
101 2 1.2915249557699999e+01 1.4269915702600001e+01 1.8809058401259999e+00
102 2 1.3678202720800000e+01 1.2085172841750000e+01 2.2937125123520001e+00
103 2 9.2915373190070003e+00 7.9759562184570001e+00 1.3568496717710000e+01
104 2 1.0242578502870000e+01 6.0236889695229996e+00 1.4506042166100000e+01
105 2 1.3304707208230001e+01 3.4331836973040000e+00 1.5222808810589999e+01
106 2 1.4636906931990000e+01 1.4740270777340001e+00 1.4933922120429999e+01
107 2 1.4029504793459999e+01 4.1272465680619996e+00 8.0344968707539994e+00
108 2 1.2990123252040000e+01 6.1217639969780002e+00 8.5987179576490007e+00
109 2 5.7939425972259997e+00 9.9759989619810003e+00 9.7208613913060002e+00
110 2 7.3963297315840002e+00 1.1170006686420001e+01 1.0906147937720000e+01
111 2 1.4400077964790000e+01 1.1030911712020000e+01 1.5337589496490001e+01
112 2 2.7441989651600002e-01 1.0213989833279999e+01 1.4611302453100000e+01
113 2 4.7238699202359999e+00 2.6489179908290001e+00 3.4270820781230000e+00
114 2 4.7493888810050002e+00 4.2536035675179997e+00 1.6721883048840001e+00
115 2 4.1970948347819999e+00 1.1012645247380000e+01 9.2869559743429997e-01
116 2 2.9370417210360000e+00 9.1910743921590008e+00 1.6482910252960000e+01
117 2 4.7340383462269999e+00 6.4433315692699997e+00 1.5931567917970000e+01
118 2 2.4179210675720002e+00 6.0371343473339998e+00 1.6195890095559999e+01
119 2 1.4268615459799999e+01 1.3283908311450000e+01 8.3073143120790007e+00
120 2 1.3645404379460000e+01 1.1060870653449999e+01 8.8001986942479995e+00
121 2 1.0698039591520001e+01 1.2764241110210000e+01 7.4074518232330000e+00
122 2 1.0338630322869999e+01 1.4071233671020000e+01 9.3295555309469993e+00
123 2 1.1758124688600001e+01 9.9117304589799993e+00 1.3117518349430000e+01
124 2 1.0866653130020000e+01 1.0725242970220000e+01 1.5119606196770000e+01
125 2 2.8034628013680001e+00 4.3616169971590004e+00 6.0805295529860004e+00
126 2 4.3827917518680000e+00 2.9499117413899998e+00 6.9983382994419996e+00
127 2 6.4894137352760000e+00 1.2953836802690001e+01 2.3356404527080001e+00
128 2 6.9847862973690003e+00 1.1817518797340000e+01 4.3350413061720001e+00
129 2 5.5396936221370003e+00 1.4650063672680000e+01 1.2311074843909999e+01
130 2 3.4528272983380002e+00 1.3729098916260000e+01 1.1718092567639999e+01
131 2 5.4519782030219996e+00 8.9989739012240000e-01 1.4149667586400000e+01
132 2 7.7021274983980001e+00 2.9630840023720001e-01 1.4073697169950000e+01
133 2 2.4795387933619999e+00 8.7559360114560008e+00 1.3208086433060000e+01
134 2 4.2034393496850004e+00 1.0287169432450000e+01 1.2690210639409999e+01
135 2 7.1921686583800000e+00 2.5306237409839998e+00 1.1966986775810000e+00
136 2 8.4868070872150003e+00 4.5596620026960002e+00 1.2924929168429999e+00
137 2 1.2834940441330000e+01 7.5504078646500004e+00 1.5236620895230001e+01
138 2 1.2330554131060000e+01 6.1775936454479998e+00 8.6010440857610004e-01
139 2 1.0922213947650000e+01 9.6652697719719995e+00 8.6784991062949999e+00
140 2 9.7120184789059998e+00 8.7017967365109996e+00 1.0449846508460000e+01
141 2 9.7203449218279996e+00 7.5499479307560002e-01 2.4979651159950000e+00
142 2 1.0921628455160000e+01 2.1787524332469999e+00 1.0199147556199999e+00
143 2 2.6378906541829998e+00 1.5069850148080000e+01 6.2188204603889998e+00
144 2 2.7171581077620002e+00 9.1237271843070000e-01 5.0568065411190002e+00
145 2 1.1741550500530000e+01 1.5994270142360000e+01 1.5006080475750000e+01
146 2 1.1330974387530000e+01 1.5812782551120000e+01 1.2733024822260001e+01
147 2 1.8783871843700000e+00 2.2877767185710001e+00 9.3227051686520002e-01
148 2 1.3858984931330001e+00 5.0485121772090003e-01 2.3373724450550002e+00
149 2 8.6947660094739998e+00 1.3329698318149999e+01 8.9380033883769999e-02
150 2 1.0289861764759999e+01 1.4007035786390000e+01 1.6569708009270001e+00
151 2 4.8103853334920004e+00 3.6574214508359998e-01 8.6169402682449991e+00
152 2 5.7150446312370002e+00 1.8758757272240001e+00 1.0167150962059999e+01
153 2 1.4080190975620001e+01 1.4120347833340000e+01 1.4239725263860000e+01
154 2 1.5643300875480000e+01 1.4052978733160000e+01 1.5995581001330001e+01
155 2 2.7720741540720000e+00 3.8532138460050001e+00 1.1489628809679999e+01
156 2 3.4296044260200000e+00 4.6375123493780004e+00 9.3619461981670007e+00
157 2 1.2775376132850000e+00 1.2182000820780001e+01 3.5115328301159998e+00
158 2 3.2817617938780002e+00 1.1353449344910000e+01 4.3751999305120002e+00
159 2 1.4751775962820000e+01 9.9072155873700005e+00 1.1906183046600001e+01
160 2 1.4824919325820000e+01 7.8345610368049998e+00 1.0844408083299999e+01
161 2 1.0146713114920001e+01 7.6995441605619996e+00 3.4556728527109999e+00
162 2 1.0762042761489999e+01 5.4737988754679998e+00 3.7155554096590002e+00
163 2 9.2755273298809993e+00 1.4159825639210000e+01 4.5146346126120003e+00
164 2 1.1620692151960000e+01 1.4299234573150001e+01 4.7071854689419999e+00
165 2 4.7018474124259999e+00 9.0317949475850003e+00 5.8340925092470002e+00
166 2 5.3093143850870002e+00 1.0991719909010000e+01 6.9718356337729999e+00
167 2 5.9073230239630004e+00 5.3640984291570000e+00 5.0213780856010004e+00
168 2 7.1932368157189996e+00 7.0395315853120000e+00 6.0867098999389997e+00
169 2 1.1674059035110000e+01 2.5466356435880000e+00 6.4199532969620003e+00
170 2 1.2655496278719999e+01 3.2622868742560001e+00 4.4430156479220004e+00
171 2 1.1726766923240000e+01 1.2762579300840001e+01 1.3122163148249999e+01
172 2 1.1770593147120000e+01 1.2373825034699999e+01 1.0801105382159999e+01
173 2 7.1633674709269997e+00 3.9244108108670002e+00 1.3585000765340000e+01
174 2 7.0444130831539997e+00 6.1867747399080004e+00 1.4156709310609999e+01
175 2 1.4617948197770000e+01 5.2623129372249999e-01 9.0567086680659994e+00
176 2 1.2618799759650001e+01 1.6312035167830000e+01 7.9275955431199998e+00
177 2 3.4880916293630002e+00 3.4189021447769998e+00 1.4740944188389999e+01
178 2 1.2052379092790000e+00 3.4311393292019998e+00 1.4339694764100001e+01
179 2 1.6184863012830000e+00 1.1019654125670000e+01 1.0465559131150000e+01
180 2 4.4494252019739999e-01 1.2611372378920001e+01 1.1800446052990001e+01
181 2 9.1368668356829996e+00 1.0949376139789999e+01 1.7563347134500000e+00
182 2 9.1924038196760005e+00 8.8715386001990009e+00 7.2804630000269999e-01
183 2 1.2279859173320000e+00 6.9193879852720004e+00 3.9294861438340001e+00
184 2 3.4520176678140002e+00 7.4709262209300000e+00 3.5358927379470000e+00
185 2 9.4722051977009993e+00 2.7053025824170001e+00 1.2032523797180000e+01
186 2 1.0867783299579999e+01 2.4311878615570000e+00 1.3916240335650000e+01
187 2 1.5175883469410000e+01 5.7179838648999999e+00 3.5714315421920002e+00
188 2 1.5436480704610000e+01 3.8690895290589999e+00 2.1312728704640000e+00
189 2 1.5845223825000000e+01 1.5769853050160000e+01 6.3714025190620003e+00
190 2 1.5697122171289999e+01 1.4477286023130000e+01 4.4348155045750000e+00
191 2 6.0467157919290004e+00 8.9806814236260006e+00 1.6912155257029999e+00
192 2 6.3499089945389997e+00 6.7028828412390000e+00 2.3135207687200001e+00

Velocities

1 5.7176742182940004e+00 1.8477328176409999e+00 5.9693037093869998e+00
2 -7.0546306737259998e+00 -3.2310826411750000e+00 -4.7263647145989998e+00
3 -4.7947518488989997e+00 1.0947695363320000e+00 -7.3240751329710001e+00
4 -5.8353572477620004e+00 3.6044460358090000e+00 7.6330562968399995e-01
5 3.4503931770639999e+00 2.6051290543249999e+00 -3.4589841971170001e+00
6 1.9668372507330001e+00 -4.2642662007469996e+00 1.4126017684809999e+00
7 7.8217247019620002e+00 -7.3927416825160002e+00 1.8265197506880000e+00
8 -3.8698537043700001e+00 1.7664985036930001e+00 -2.3040116220599999e-01
9 -6.9525375833059999e-01 6.4944373092840002e-01 -1.2152653538890000e+01
10 -2.3031894677009999e+00 1.7397900625210001e+00 2.0485984790959999e+00
11 5.1616930078710004e+00 -5.8844392889210004e+00 6.3707505982610000e+00
12 -5.4869308250659996e+00 1.3053255729240001e+00 -1.0528237195590000e+00
13 5.9769443927830002e-01 -1.8813421423150001e+00 -9.8929469346920005e+00
14 -5.6104911979100001e+00 7.0186069716940001e+00 4.1292321730879999e+00
15 4.8045899073229998e+00 -7.5343283088830004e+00 -4.8310677318060002e-01
16 1.5740588282410000e+00 1.0761873932479999e+00 -9.0164471815210001e-01
17 8.3836161252270003e-01 -5.4670033114649996e-01 -1.3727056808930000e+00
18 3.2286495835930000e+00 6.1620055325359999e+00 3.7164711610610000e+00
19 1.9988334262030001e+00 -3.6465631928810001e+00 -6.1103130604610003e+00
20 5.0569232220540004e+00 -1.4218751692039999e+00 7.6020838672649997e+00
21 5.8666512336220000e+00 -2.7509140881490000e+00 -7.7272605867950004e+00
22 3.4660704486889999e+00 -5.9139582894669995e-01 1.1838522415070001e+00
23 1.0236094372400000e+01 -4.6690319515330003e+00 4.6344978538610002e+00
24 -2.8088929338969999e+00 5.2490811534909998e-01 1.8626985440510000e+00
25 -3.0797239270499999e+00 2.3206293142950001e+00 -9.3711259377659992e+00
26 1.0374387799189999e+00 1.9409198183480000e-01 -7.9786802776470001e-01
27 -5.0200148704979997e+00 -3.2244962662120003e-01 -7.8519984494280004e-01
28 -6.9391819223960001e+00 -4.5359858660530001e+00 -5.5982761308319997e+00
29 -8.5980149753020001e+00 -1.3844593681240001e+00 5.4004056954810000e+00
30 -4.3286865575110003e+00 1.9211391786130001e+00 -2.7658469563730002e+00
31 -2.8860446321239999e+00 4.2083346187149999e+00 3.6150227707610000e-01
32 -2.3042523136809998e+00 7.3315923234179996e+00 -9.9434415614620004e+00
33 2.4914451570299998e+00 2.5940170823690001e+00 -5.8707040551010001e+00
34 7.6650443042930005e-01 -4.3702687086010004e+00 -3.3512732112500001e+00
35 -7.3537567457749997e-01 2.4086770862560000e-01 3.4730119699370001e+00
36 -3.9081204474189999e+00 -1.8233894270610000e+00 -2.0982952679240001e+00
37 6.1070315328309999e+00 -1.3347774250219999e+00 2.7764617929300001e-01
38 -3.6796304585830000e+00 3.7336251837269998e+00 5.7506980362539997e+00
39 7.9135168810199996e+00 -4.5855754837729998e+00 1.0995246346080000e+01
40 1.9915280832569999e+00 3.7444428609610001e+00 -5.5472135276610004e+00
41 -2.5620249424620001e+00 -7.4814826828129997e+00 -4.6661865583989997e+00
42 -2.5352356095580002e+00 4.0233229954500001e+00 1.0674715082760000e+00
43 1.6560550716980000e+00 4.6562844538609998e+00 -1.2677799002950001e+00
44 3.2658560494920001e+00 -1.2187471303880000e+00 2.6143506435260000e+00
45 4.2181443284920003e-02 5.7967877542190003e+00 2.0575209500030001e+00
46 -8.0375177655210006e+00 -2.0308137739109999e+00 5.9632480078870002e-02
47 7.3031494017010001e-01 -4.2319269228250000e-01 2.5112754456220001e+00
48 -2.3461191404589998e+00 -2.8822945769929997e-01 -6.7559367739159999e+00
49 2.6255306902259998e+00 -1.7595241071620000e+00 -2.8294603624220001e+00
50 5.5517471776670002e-01 -1.2360709317120000e+00 2.3732986068400002e+00
51 -4.2187165540600002e+00 -3.5713148242180002e+00 -4.1387193706510000e-01
52 -1.6896594546560001e-01 -9.9053323699889995e-01 -5.8819930924410002e-01
53 -6.8096489099999999e+00 2.2797720841340001e+00 2.0617885734520001e+00
54 -1.2573438440480000e+00 -5.5678378635839998e+00 -3.7634382255440002e+00
55 -5.2018326978109997e-01 2.2337256951390000e-01 3.1817478023620001e+00
56 6.3506874409830001e+00 -3.8661612314950000e+00 -4.0626523157729997e+00
57 -3.9298873642020000e+00 -7.2931082497070001e+00 -4.2623189600089999e+00
58 -6.0476669516639996e+00 -1.7681527190140001e+00 -4.0705188694750003e+00
59 -3.2926888176809999e+00 4.0263938481029999e+00 -6.8037499059829998e-01
60 3.9455867743380000e+00 3.5828985082500000e+00 -5.7550378490309999e+00
61 6.5022814709430001e+00 2.2828998819259998e+00 7.1576550265280003e-01
62 1.1943285106819999e-01 1.9409826525070000e+00 9.8454717739830002e+00
63 -8.2327671601880004e-01 -1.2376850178629999e+00 8.1267218916840001e-01
64 -5.1415882577299996e+00 1.4566044381959999e+00 7.6348982244180004e+00
65 2.3612985589359998e+00 -1.9128846923939999e+00 -1.7064405658020001e+00
66 3.0850497588220001e+00 8.9115929670369998e-01 1.7918468925219999e+00
67 1.1850504440659999e+00 -1.2060366320380000e+00 -7.8880619245250005e-01
68 5.4638916333449998e+00 4.4611940993020003e+00 -1.9521135554830000e+00
69 -2.3047556893799999e+00 4.3201610842839999e+00 -2.5199915224630001e+00
70 4.5951777110179997e+00 -2.2604342095340000e+00 -3.0121272265129999e+00
71 -1.0052782055820000e+00 2.9928796265590001e+00 -1.0910069179860000e+00
72 1.6314987681719999e+00 7.0364785143749997e-01 1.4952786132360001e+00
73 5.6196922766000004e+00 -6.7213584130130002e+00 -2.6012286193369998e+00
74 -1.0444219595010001e+01 -1.0028269775309999e+00 -3.1800051678650000e-02
75 -2.1686563415609998e+00 -5.8984316681489997e+00 4.1559071490540000e-01
76 -1.2451199262540000e+00 -1.5161417266020001e+00 4.0127022298970001e+00
77 -4.2823907505270000e+00 -4.4466431315100001e+00 3.5045011948350000e+00
78 -8.3507556473169997e-01 1.6491316865979999e-01 -3.2061906769389997e-01
79 3.4706175415470000e+00 -2.3112369491200000e+00 7.7906890993979996e+00
80 -2.3138889431430001e+00 4.3509949860360004e+00 1.8965183750579999e+00
81 4.5224362166410002e+00 -5.0812733703720001e+00 -2.2631548357720002e+00
82 -1.7689292440869999e+00 -3.2893916966690001e-01 -6.7047564196389997e+00
83 1.4784630288150000e+00 3.9364096385220000e+00 6.7202828579820002e+00
84 2.8459783766269999e+00 -2.5555460784570001e+00 1.1878174101620000e+00
85 -5.2074457898370001e+00 -3.8492806627649999e-02 -6.3578178212300003e+00
86 4.7050928378619998e+00 -1.8034149457399999e+00 3.6631759808480000e+00
87 1.4443630041769999e+00 -1.0304026439339999e+00 1.7747541385460000e-01
88 -3.9901081886640002e+00 -8.1453165896959998e+00 -2.0566726556529999e-01
89 3.2387898314569998e+00 -7.4414323755960003e+00 -1.1352047553680000e+00
90 3.4216281084380000e+00 1.6435997197559999e+00 4.3691966433209997e+00
91 1.7516771127030000e+00 5.5991668465469999e+00 3.8640516796250002e+00
92 2.9106368323220000e+00 -2.8942608814390001e+00 -2.7408564995679998e+00
93 -5.5301106022220003e-01 -4.1762150143570000e+00 6.4193883034400004e-02
94 -4.8952959503739999e+00 2.1561753006300002e+00 -1.3873359190160000e+00
95 9.6475141544989995e-01 -5.3985410283829998e+00 3.3925544641720000e+00
96 2.3267746030610001e+00 -5.2779118886629997e+00 -4.1823281360489997e+00
97 5.5503827955400000e+00 2.2932287827729998e+00 1.0929200068969999e+01
98 -1.0664817199129999e+00 6.1540897146470002e+00 3.9987829409239999e+00
99 -1.4196224806519999e+00 1.0480794704539999e+01 -2.0583115012700000e+00
100 6.4519392230539996e+00 -2.6296189715890000e-01 -2.5375572343770001e-02
101 -2.8413297021760000e+00 2.1128329498389999e+00 7.2337588972880003e+00
102 1.1858767705019999e+00 -5.3339984571620001e+00 2.5057840319180000e+00
103 1.8044589987230000e-01 1.3276926734029999e+00 5.5214029510570004e+00
104 3.6802789652180001e+00 6.3343992114030003e+00 -6.4029440621260001e+00
105 5.1188997148850000e+00 2.8756048030180001e+00 5.9456146207930001e+00
106 4.6565413089880003e+00 -1.2644844271410001e+00 3.7911587040030001e+00
107 -5.3123940336239999e+00 4.6501373983549998e-01 6.1487273771620004e+00
108 4.3219209470530000e+00 -1.5907954158340001e+00 3.1258710302120001e+00
109 5.3212685971300000e-01 1.6154539593869999e-01 -7.3057997588790000e+00
110 2.1878737677450002e+00 -2.9725023423949999e+00 -1.0306866939790000e+00
111 -4.5804566054069999e+00 2.0247744418700000e+00 7.0426886728350002e+00
112 5.6469167271470004e+00 1.3695087751320001e+00 -4.7263152266809998e+00
113 3.2588631097869998e+00 2.5665496334950000e-01 -4.0622975359250004e+00
114 -5.2577516892709997e-01 -7.9287750933390000e-01 -3.3911856258410000e+00
115 2.9139198018219998e+00 1.9101616224150000e+00 2.6727297381190001e+00
116 -2.6126358285550002e+00 5.6593575670830003e-02 8.3147286035390007e+00
117 -9.4795000188190004e-01 1.3332312367320001e+00 -2.9897059153760002e+00
118 -3.8339695003470000e+00 6.8655186754019999e+00 4.7455940724419996e+00
119 -2.1415532253560001e+00 6.9688642913459997e+00 -1.2017633680210000e+00
120 -3.0284746694929998e+00 8.6013162682489996e-01 6.5377551872310002e+00
121 -1.9373134123639999e+00 4.4888657353859998e+00 1.8402084212240000e+00
122 4.6181978614750001e+00 2.9251378914020001e+00 2.2437083767589999e-01
123 4.5198342209079998e+00 3.1524221695980001e+00 -2.4780685542790001e-01
124 1.4858507584359999e+00 -1.1591312831570000e-01 2.4525895172149998e+00
125 2.9203506732740001e+00 3.0950836918409999e+00 5.3299682136779998e+00
126 -3.5722049417220001e+00 2.3089203688710001e+00 4.4607705643879996e+00
127 5.0547954509970001e+00 -5.8707697899540001e+00 -3.5035282367649998e+00
128 6.7953194986240000e+00 -2.5922190244120000e+00 7.0123733894569995e-01
129 -3.0812450680989998e+00 -2.3186141297599998e+00 3.4059519485190002e+00
130 -1.1085854664529999e+00 -1.8251559520820000e+00 1.3703427767509999e+00
131 -4.5878399740590003e+00 -1.0083233390370001e+00 -5.5606660610469998e+00
132 3.4403779391449998e+00 9.0875755756779997e-01 -6.7736962702629997e+00
133 -5.6377446061350001e-01 9.2123847678100006e+00 -4.1421567749649997e+00
134 4.0664095181780002e+00 7.5859447122689998e+00 -4.7384504153169997e+00
135 4.2983644331519999e+00 -2.5921742672370001e+00 -3.4789164883799999e+00
136 -8.0783489179460002e+00 -9.2003375273879995e-01 9.2929459295820005e-01
137 -4.2230535782079999e+00 -7.6133893472540004e-01 3.4740842263539999e+00
138 -6.9972152810599999e+00 -7.8459221622559996e+00 -7.7087440709569996e+00
139 -1.9854420885180000e+00 2.4306925201370000e-01 1.1207877129980000e+00
140 -5.5311586310919996e+00 1.4153967075539999e+00 -1.3012630897460000e+00
141 -5.0209068667570000e-01 -2.1785969798270000e-01 -7.2648593305910003e+00
142 -4.6002906327700002e+00 1.8214362843689999e-01 -2.4997838755789998e+00
143 -1.1226147255759999e+00 -2.2557111689300000e-01 1.0910959135220000e+00
144 2.0993579578710002e+00 -2.8126849315719999e+00 1.1867208003940000e+00
145 -2.4175854924959999e+00 2.8673655018669999e+00 -6.0094538173760004e+00
146 4.1207072341759998e+00 -3.5489957500750000e+00 6.8056009653020002e+00
147 7.6786381674420001e+00 -3.3132350861319999e+00 -4.0116809845579998e-01
148 6.3790651125160003e-01 6.7686946301280004e+00 2.5364842455249997e-01
149 -2.8651203714340001e+00 -7.5128761377209996e-01 -9.9164208460259995e-01
150 -4.5145643722550002e+00 -1.2145842893600001e+00 -2.0954412644199998e+00
151 4.7793268280739998e+00 6.1573737061199996e+00 -1.9048812985690000e+00
152 4.4756855265870001e+00 3.0753731469160001e-01 -1.8186217357529999e+00
153 -6.1844010887999996e+00 -2.5217168392759999e+00 -3.8825905890849999e+00
154 -4.8657346549650002e+00 -3.6196863250970002e+00 2.6877182408620000e+00
155 1.5409307619670001e+00 9.8046602774400005e-01 2.8691968732030002e+00
156 -5.8001072347250000e+00 -2.2200157405150001e+00 7.3805767041439996e+00
157 -2.5335788743609999e+00 7.5264900943550002e+00 -3.7360992121000001e+00
158 2.7057894422600000e+00 -3.6880761660510002e+00 2.1775354429879998e+00
159 -1.1809490527510000e+00 -1.8029222181739999e+00 -2.6966713795890001e+00
160 4.3412957345159997e+00 -3.2685637369870002e+00 6.2053733262369999e+00
161 2.0574190623479999e-01 -1.1198195987410001e-01 -3.2689693241500000e+00
162 5.6298687550509996e+00 8.0575285596919999e-01 4.4254666316420002e+00
163 -5.9705359042469999e+00 -6.0136844527209998e+00 -1.1053304476870001e+00
164 -3.5263895162160002e+00 2.5427154365039999e+00 2.5114048642150002e+00
165 2.5476794784930001e-01 -3.8687600103839997e-01 3.6490301294959999e+00
166 -1.6613009294100001e+00 -3.1150647381050001e+00 -1.1239555190160000e+00
167 9.8345660176450007e+00 2.4108976786500000e+00 -1.9323762187710001e+00
168 4.6587587655130003e+00 -5.2755147705690000e+00 3.6256605926269998e+00
169 -5.3697607250199999e+00 -7.7921926943380004e-01 -3.3336283071180001e-01
170 -3.7810621661549999e+00 4.5980532216050003e+00 -5.4270547549439998e+00
171 -4.5438268830049999e+00 3.5874138850870002e-01 7.8511588496759999e-01
172 -1.3934228657290000e+00 5.4712014690129995e-01 1.6968293500100000e+00
173 5.0103633723759999e-01 5.9109760995579998e-02 -6.3153873097470004e-01
174 1.5853414136920001e+00 -1.6010470031749999e+00 3.4348599386169998e-01
175 7.1187736124949996e-01 -5.6250019826019999e+00 -5.0110763161819998e+00
176 4.3962549411440000e+00 6.9522219980630000e+00 -2.2793641940920000e+00
177 8.1967444247480004e-01 1.1299114122930000e+01 2.2797063576449998e+00
178 -7.7183582879179999e+00 -3.8123643372510001e+00 -5.4740568428370002e+00
179 4.1988534156780002e+00 -2.7746492297000001e+00 -1.3157238761179999e+00
180 -7.3393270454080006e-02 -1.1637315075010000e-01 1.4281593543340001e+00
181 1.5823781570960000e+00 3.4738955278039998e+00 -2.0465764231489998e+00
182 2.3080276233160002e+00 7.0401822976520001e-01 -1.2942744832910000e+00
183 -1.8180928796600000e+00 -2.1923160078290000e+00 7.5614328433780003e+00
184 6.3853339678039998e+00 2.2891223172630002e+00 -6.7982673030810004e+00
185 -4.0236057391440001e+00 -2.1399120596540002e+00 -2.3675390912149998e+00
186 1.8449097196670000e-01 -7.1880764695780002e+00 1.5847721899659999e+00
187 -2.2119901890420000e+00 2.1164721173349998e+00 1.4654421753950000e+00
188 2.6140216292189999e-01 -2.7699801311929999e+00 -3.3369726247970002e+00
189 -7.1143946956319999e+00 9.7928685573389995e-01 2.7814633046810000e-01
190 -1.4926810933579999e+00 4.1685759697369997e+00 2.9074835567630002e+00
191 -2.0411127223070000e+00 -7.6633474455820005e-01 -1.7413003460880001e+00
192 -6.8156726078969998e-01 6.1009807679060000e+00 3.5439250707040002e+00
