LAMMPS data file extracted from NVT dump, timestep 740000, units metal

192 atoms
2 atom types

0.0000000000000000e+00 1.6195563468200000e+01 xlo xhi
0.0000000000000000e+00 1.6195563468200000e+01 ylo yhi
0.0000000000000000e+00 1.6195563468200000e+01 zlo zhi

Masses

1 12.00000000
2 16.00000000

Atoms # atomic

1 1 6.2198011304409997e+00 9.2021914365460002e+00 1.6756338973130001e+00
2 1 7.2693703447809996e+00 6.4109236467630000e+00 1.0741479649190000e+01
3 1 1.2101300119299999e+01 8.5917183770249999e+00 8.2219092571260006e+00
4 1 7.4061659302480001e+00 1.5792871193530001e+01 7.4732902922240001e+00
5 1 3.7651654842530000e+00 5.2637081112330000e+00 1.4962059292490000e+01
6 1 2.2295518069379998e+00 1.8105146888210000e+00 7.2677014051439999e+00
7 1 1.3420288498490001e+01 1.5281409718670000e+01 1.0102339811529999e+01
8 1 4.4076549801480001e+00 1.5064390202940000e+01 1.1682490445339999e+01
9 1 2.7368134393640000e+00 1.0561144066740001e+01 1.3827256970290000e+01
10 1 9.4108698353219999e+00 5.6669366712370000e+00 7.6656331962110000e+00
11 1 7.8305720543269999e+00 6.1797420813610004e-01 4.0237629076000001e+00
12 1 1.5863475589880000e+01 8.4968577944939998e+00 1.5755759447210000e+00
13 1 1.1819496638620000e+01 1.2382439228040001e+00 1.3621093094540001e+01
14 1 1.3583773432010000e+01 7.6409792414580000e+00 1.1142731966190000e+01
15 1 4.2007696496470004e+00 3.1066430706440000e+00 4.5583954972659999e+00
16 1 6.7139929685049999e+00 1.2149645638650000e+01 9.3170552715340005e+00
17 1 6.6760658503640000e+00 1.0710720897320000e+01 1.3014311194759999e+01
18 1 5.2019881432320003e-01 2.7065999857210001e+00 1.0242467381710000e+01
19 1 5.9791136865760004e+00 3.1863063642820002e+00 8.0968095890229996e+00
20 1 3.3510849491810002e+00 7.7395943796709998e+00 3.3305850142250000e+00
21 1 1.1352987602600000e-01 1.0226662164750000e+01 5.2969422424669999e+00
22 1 1.1091664440960001e+01 4.9940166365429999e+00 1.2007417606340001e+01
23 1 8.9589313437850002e+00 1.9296540226909999e+00 1.0308616753490000e+01
24 1 7.8896149965840001e+00 1.1919720234820000e+01 4.1936644593740002e+00
25 1 1.4660552482860001e+00 4.3303668704389997e+00 7.4457326094970000e-01
26 1 1.5154185256160000e+01 1.4954084690189999e+01 6.7655681038279996e+00
27 1 1.0624257390600000e+01 8.4778355067589999e+00 2.1136630826629998e+00
28 1 4.5347531559650003e+00 2.9200588962660001e+00 1.2113727481290001e+01
29 1 1.2524358625390000e+00 9.8011622526990005e-01 1.3495875200810000e+01
30 1 6.0926852762810002e+00 4.1763930736079997e+00 1.3835619252639999e+00
31 1 1.2176420642000000e+01 1.4733595583490000e+00 5.0295867014970002e+00
32 1 2.0890109607020002e+00 1.2021401366570000e+01 9.9514667470439999e+00
33 1 1.2743984218720000e+01 4.3344203252389999e+00 4.8743346493930001e-01
34 1 8.4557645252059999e+00 1.5279689496900000e+01 1.3061833760110000e+01
35 1 1.5650624037940000e+01 1.3895516776450000e+01 1.2664442796279999e+01
36 1 4.0933189125659997e+00 7.4027820445229997e-01 7.3512990695939995e-01
37 1 6.7493758370319998e+00 7.8139367897640000e+00 5.1612271369030003e+00
38 1 1.0580956139470000e+01 1.0281109905010000e+01 5.5459231640790003e+00
39 1 1.3440632961029999e+01 1.2955500365440001e+01 3.0430599553950000e+00
40 1 3.5856714008570001e+00 1.2087557154590000e+01 3.1092394780310002e+00
41 1 1.0180370721370000e+01 7.2599281940239999e+00 1.5742446350860000e+01
42 1 1.5963649476230000e+01 4.0246907405029999e+00 4.7082556921140002e+00
43 1 4.2752345335220001e+00 8.5724442641110006e+00 7.8501411689170002e+00
44 1 1.0032062908560000e+00 1.3510656370290000e+01 1.6246576653020000e+01
45 1 1.4738550162070000e+01 1.1788294380989999e+01 9.2847764750310002e+00
46 1 3.4220267267170001e+00 1.4534753845279999e+01 6.5298376770919999e+00
47 1 1.5459525632260000e+01 5.5630414744510004e+00 1.3720683767580001e+01
48 1 5.0220687026919997e+00 1.2651992213540000e+01 1.5964715999839999e+01
49 1 1.0622425782920001e+01 1.0649217427809999e+01 1.0838635173060000e+01
50 1 7.8191912181279999e-01 7.5102530366859996e+00 1.0002078896870000e+01
51 1 1.9304473134550000e+00 6.0097416608740000e+00 6.8287213568420002e+00
52 1 9.3353115093810004e+00 3.6962249511110001e+00 2.6058386035129999e+00
53 1 8.5114841350640003e+00 1.2516661359080000e+01 1.5950146293320000e+01
54 1 1.1882715411500000e+01 1.3202070816659999e+01 1.3257862048850001e+01
55 1 3.9827727134130000e+00 7.7292068972459997e+00 1.1523872908180000e+01
56 1 1.1155395634150000e+01 1.4200791593829999e+01 5.7991976581830000e+00
57 1 1.3752745613229999e+01 3.2232794985309998e+00 8.3495488938240001e+00
58 1 1.0177890783780001e+01 1.5306280055120000e+01 1.0021303896839999e+00
59 1 1.2580087578160001e+01 6.4811939477790004e+00 4.8275062250799996e+00
60 1 1.4379132867650000e+01 8.1549850327280005e-01 9.4836039925469995e-01
61 1 7.8870442478590004e+00 5.4440683975719999e+00 1.4639668049930000e+01
62 1 6.4802583476910003e-01 1.5907925217230000e+01 3.4599308730380001e+00
63 1 1.0082933865570000e+01 1.4335223691690000e+01 8.9554336609590006e+00
64 1 1.3566103503800001e+01 9.8925220343970004e+00 1.5002776794030000e+01
65 2 7.2146886098670002e+00 8.5705590540159999e+00 1.7211073812569999e+00
66 2 5.1760918400709999e+00 9.7555020870549995e+00 1.7344871001380000e+00
67 2 7.6984776405939996e+00 5.3192580848200004e+00 1.1031081470720000e+01
68 2 6.6834132470909999e+00 7.3349559225230001e+00 1.0401312187169999e+01
69 2 1.2958511751260000e+01 9.2666273013129992e+00 7.7855520215430003e+00
70 2 1.1141940660680000e+01 8.2010676981090000e+00 8.7380870346979993e+00
71 2 7.6632356193540003e+00 3.7249091235379998e-02 8.5236389408890005e+00
72 2 7.1781495362829997e+00 1.5402919592580000e+01 6.3601817655669999e+00
73 2 4.4938514298800003e+00 6.0487644920659998e+00 1.5440334169130001e+01
74 2 3.0616112188150000e+00 4.3902952497549999e+00 1.4546036466710000e+01
75 2 1.0631738613849999e+00 1.7438274071169999e+00 7.1340369842850002e+00
76 2 3.3790217803400000e+00 1.8514939740150000e+00 7.4684204965890002e+00
77 2 1.3255097602030000e+01 1.4582326463470000e+01 9.1330344694549996e+00
78 2 1.3601076728440001e+01 1.5995906900790001e+01 1.1004418784929999e+01
79 2 4.3440496535479998e+00 1.6206019258310000e+01 1.1408462757570000e+01
80 2 4.4523353844629998e+00 1.3925767738179999e+01 1.1899439338570000e+01
81 2 3.5770949271929999e+00 9.8601755924370007e+00 1.3456367830310000e+01
82 2 1.9096506373890001e+00 1.1296341933940001e+01 1.4266094708440001e+01
83 2 1.0379454688999999e+01 5.5485807005370003e+00 7.0458481982669996e+00
84 2 8.4025956955089995e+00 5.6885195272280002e+00 8.2618807585159999e+00
85 2 8.6197269556390008e+00 1.0927086483270001e+00 4.7477311278589998e+00
86 2 7.0927702728620003e+00 2.0591126828539999e-01 3.2180251101250001e+00
87 2 1.5045943538700000e+01 8.3661464430919992e+00 2.4203343931300001e+00
88 2 5.2434069516019999e-01 8.6554899105169998e+00 7.8271994817309998e-01
89 2 1.1773332577820000e+01 6.1566730034049999e-02 1.3484829745070000e+01
90 2 1.1814690390939999e+01 2.4059135776490002e+00 1.3717389554860000e+01
91 2 1.4086008611400000e+01 6.9349531008780003e+00 1.0296532460450001e+01
92 2 1.3235737191960000e+01 8.4864976803130006e+00 1.1927160870330001e+01
93 2 4.9923800596160000e+00 2.2507502192570001e+00 4.6729492296560000e+00
94 2 3.3879946182860001e+00 3.9667206105220001e+00 4.4085155906939999e+00
95 2 6.7779648095159999e+00 1.3302114000090000e+01 9.0746880552350007e+00
96 2 6.7453721127790001e+00 1.0987619480270000e+01 9.4278673579040007e+00
97 2 6.6981892336800000e+00 1.1864055969920001e+01 1.2783377003169999e+01
98 2 6.7290351998949998e+00 9.5560230051640005e+00 1.3267386970430000e+01
99 2 8.0544385615600000e-01 1.5982970999720001e+00 1.0541375348450000e+01
100 2 2.6655368187700001e-01 3.8207093544689998e+00 9.9615490825730006e+00
101 2 5.7422674196010002e+00 3.0712294663780000e+00 9.2618958509549998e+00
102 2 6.1070083784119999e+00 3.2409173762140000e+00 6.9271935756250000e+00
103 2 2.1987710065139998e+00 7.9088800182109997e+00 3.2681970924880002e+00
104 2 4.4686974726730000e+00 7.5629048759520003e+00 3.5833569526289999e+00
105 2 7.9580259906070006e-01 1.1074773688460001e+01 4.8484787050770004e+00
106 2 1.5545321502889999e+01 9.4434713865289996e+00 5.7079725591310000e+00
107 2 1.0326399241400001e+01 5.3178077905960004e+00 1.2853205425830000e+01
108 2 1.1936781362160000e+01 4.7133153808820003e+00 1.1275748913759999e+01
109 2 8.9100016194550005e+00 1.2231672844960000e+00 1.1243009633010001e+01
110 2 9.0966404065430009e+00 2.6783515921430001e+00 9.4263258337480007e+00
111 2 7.7687379850460001e+00 1.2043917832860000e+01 3.0568218226020001e+00
112 2 8.0384209064400007e+00 1.1817781344760000e+01 5.3320196959540000e+00
113 2 2.0228913493620002e+00 5.2811969910560004e+00 1.0437582497300000e+00
114 2 8.8502024422970005e-01 3.3633436962720000e+00 5.2936331683240001e-01
115 2 1.4300350742470000e+01 1.5569292464069999e+01 6.2301153674830001e+00
116 2 1.6007668443440000e+01 1.4328576476500000e+01 7.2503665454160000e+00
117 2 9.9108800923730005e+00 7.7684458150130000e+00 2.7347361823890002e+00
118 2 1.1407289033600000e+01 9.1251587431480008e+00 1.5408490066980001e+00
119 2 5.6142481994650000e+00 2.8248812793670002e+00 1.2533069319819999e+01
120 2 3.4507718679199999e+00 2.9071671172290001e+00 1.1716768206930000e+01
121 2 6.3150242333369999e-01 1.9963059970849999e+00 1.3559676992929999e+01
122 2 1.7576397332730000e+00 -7.9032236393889996e-02 1.3487852589499999e+01
123 2 6.3491321935389999e+00 5.1450675804559998e+00 1.9727044325820000e+00
124 2 5.7560575793069999e+00 3.2533761858210002e+00 7.5132142625520004e-01
125 2 1.1801231121340001e+01 1.8524545178940000e+00 6.0710562283550003e+00
126 2 1.2652703152150000e+01 1.0079638804790001e+00 4.0632156272950004e+00
127 2 2.9089223831409998e+00 1.2598851252850000e+01 9.3292749956010006e+00
128 2 1.2794428799740001e+00 1.1355640692100000e+01 1.0512558784639999e+01
129 2 1.1885160046450000e+01 3.5730042775449999e+00 2.3632670655440000e-01
130 2 1.3584610471270000e+01 5.1523033141630004e+00 6.7644247495080001e-01
131 2 7.8227892954950002e+00 1.6089756719979999e+01 1.3630333881680000e+01
132 2 9.1170803609439997e+00 1.4570980607759999e+01 1.2431616385490001e+01
133 2 1.5138802185710000e+01 1.3668497732800001e+01 1.3730288295690000e+01
134 2 1.6104473654189999e+01 1.4187162642590000e+01 1.1618103692369999e+01
135 2 3.5099262752149998e+00 1.4368584324410001e+00 1.6163973162649999e+01
136 2 4.6982789185320000e+00 9.8437125863909999e-02 1.5117808856670001e+00
137 2 6.4418007427959996e+00 6.6678099207779997e+00 5.2433831026800002e+00
138 2 7.0521814023550000e+00 8.9513224380020002e+00 5.1827718813860004e+00
139 2 1.0624098714740001e+01 1.0262404690200000e+01 4.3881459799640004e+00
140 2 1.0448424597870000e+01 1.0224479589910000e+01 6.7270528963049996e+00
141 2 1.4082870596830000e+01 1.1952889061520001e+01 3.0329113063460000e+00
142 2 1.2751870509620000e+01 1.3879739060320000e+01 3.0574817548510000e+00
143 2 3.0452738624390001e+00 1.2196270545310000e+01 2.0934425355839998e+00
144 2 4.1017851155890002e+00 1.1949071762519999e+01 4.1529904784960001e+00
145 2 1.0732498045130001e+01 6.2599934521740002e+00 1.6130832890210002e+01
146 2 9.7264469340699993e+00 8.2403788725019993e+00 1.5246560882910000e+01
147 2 1.5309305158450000e+01 3.3764000061060000e+00 5.4159522402790001e+00
148 2 4.4001365786399999e-01 4.6849348061410003e+00 3.9834144953389998e+00
149 2 4.1954865240929999e+00 7.4273304225660004e+00 8.1216984206559992e+00
150 2 4.3396404717379999e+00 9.6896040189299999e+00 7.5367686808969996e+00
151 2 1.9648800524900001e+00 1.4052902236450000e+01 1.5844758433110000e+01
152 2 1.6275192487750001e+01 1.2877750572509999e+01 4.4016279218429999e-01
153 2 1.5244602172810000e+01 1.1733262760480001e+01 8.2204917255259993e+00
154 2 1.4227852371519999e+01 1.1924144119050000e+01 1.0359087731130000e+01
155 2 2.5585480633010000e+00 1.4413449618240000e+01 5.7416304697670002e+00
156 2 4.2956396810259996e+00 1.4567907215429999e+01 7.3109838674279999e+00
157 2 9.1547619011529996e-02 6.1188086003209996e+00 1.4348172838000000e+01
158 2 1.4582125195000000e+01 4.9697422162459999e+00 1.3221693699659999e+01
159 2 4.7615236079369998e+00 1.1671478356330001e+01 1.5345898875710001e+01
160 2 5.3137928775300001e+00 1.3682028967780001e+01 3.0603522361180002e-01
161 2 9.5848825159390003e+00 1.0996679930139999e+01 1.1282962137060000e+01
162 2 1.1673352415629999e+01 1.0392986809070001e+01 1.0366834674600000e+01
163 2 7.7018693057770005e-01 7.5878643389929996e+00 8.8367335636740005e+00
164 2 9.6461523995940002e-01 7.4103784051180002e+00 1.1177502580580001e+01
165 2 2.0324144537460000e+00 6.8918732707829999e+00 6.0797589734530000e+00
166 2 1.9262747765020001e+00 5.1313606687800002e+00 7.5915267199859997e+00
167 2 1.0108333206350000e+01 4.4840063584859999e+00 3.0006679547230002e+00
168 2 8.6050490869560008e+00 2.9154621477889999e+00 2.0992054449860000e+00
169 2 8.4423867108560007e+00 1.3669424338860001e+01 1.5787090714880000e+01
170 2 8.4580936032159997e+00 1.1323260750710000e+01 1.5957321647530000e+01
171 2 1.1069699761240001e+01 1.3000894365360001e+01 1.4075607834320000e+01
172 2 1.2624808082220000e+01 1.3247636965730001e+01 1.2339275999530001e+01
173 2 4.2172724876689998e+00 6.8157336786030003e+00 1.2270378547609999e+01
174 2 3.8231209787539999e+00 8.6584529282730003e+00 1.0849449932560001e+01
175 2 1.1030282204180001e+01 1.5261755610050001e+01 6.2738414859139997e+00
176 2 1.1344165292140000e+01 1.3143340689290000e+01 5.3862020122830003e+00
177 2 1.3786725279080001e+01 4.2367071301610002e+00 7.7276663012539997e+00
178 2 1.3686259082570000e+01 2.1589104528070000e+00 8.9129812137349997e+00
179 2 9.7177016015040003e+00 1.5025917541829999e+01 2.0591479995689999e+00
180 2 1.0672770242260000e+01 1.5717704513290000e+01 2.4139806477319999e-02
181 2 1.3050427558319999e+01 5.3950572615189998e+00 5.0469351604400003e+00
182 2 1.2290286653670000e+01 7.5726220815729999e+00 4.4801733516550000e+00
183 2 1.4303756132829999e+01 1.5926688657430001e+01 4.5117963258819999e-01
184 2 1.4453469454820000e+01 1.8291344515129999e+00 1.5235668448740001e+00
185 2 8.4014515142650001e+00 4.6282495143500002e+00 1.5348185247649999e+01
186 2 7.4741184074620000e+00 6.2945920351230003e+00 1.3962706585930000e+01
187 2 8.1965747754620000e-01 1.4971026812390001e+01 2.7610835882739999e+00
188 2 3.6662916037690002e-01 7.1553149059090004e-01 4.0140179272190002e+00
189 2 1.0208940397179999e+01 1.5259380349260001e+01 9.6726343927489999e+00
190 2 9.8458320190350008e+00 1.3436697142750001e+01 8.2487980850659994e+00
191 2 1.2434349370770001e+01 9.9285242265650009e+00 1.4658117144920000e+01
192 2 1.4700419733240000e+01 9.8881425777749996e+00 1.5305828014270000e+01

Velocities

1 -5.2617257713279999e+00 2.0408826819330000e-01 2.7047137380280000e+00
2 -1.1484458419770001e+00 8.0965038003220002e-01 -5.0284867509789999e-01
3 -4.8346157890099999e+00 -5.8270026053850001e+00 1.2645157804139999e+00
4 -1.5025546314700000e+00 8.9209050522790004e-02 -2.3733549683209998e+00
5 -2.6431905526220001e-01 -2.6380181924960000e-01 -1.9714703404580001e+00
6 -5.1909349850910003e+00 -7.2732078239879998e+00 2.9804341773130001e+00
7 1.1655187106390000e-01 4.2676415623709998e+00 4.0275623205509996e+00
8 6.9736575005919998e-01 8.7093224216720007e+00 1.7627684905100001e+00
9 2.6908449191649999e-02 -9.4146552654950000e+00 4.9098335167300000e+00
10 -2.4868249392430002e+00 -3.6751073635160001e+00 6.5069892178150002e-01
11 5.5039524164350002e+00 -1.3103866419599999e+01 -6.6024493379939999e+00
12 -6.5684318236200001e-01 4.1569121543009997e+00 4.4481192773170003e-02
13 -2.6857395152730001e-01 -6.1056070203640003e+00 -1.4251067262389999e-01
14 -3.6862589560469998e+00 -3.3292933222340002e+00 -2.1854232243360001e+00
15 5.5540024897629996e+00 2.8044723772220000e-02 -3.6438779345860000e+00
16 3.1609852184470002e+00 2.1580987273079999e+00 2.4868414406910002e+00
17 -7.0668254658820002e+00 -3.4776718555929997e-01 -2.3485942957290001e-01
18 -4.7005729889290002e+00 -9.5357253043360002e-01 -1.1448143922250001e+01
19 -2.6452110998470002e+00 5.4906009036169996e+00 -7.9445610243090004e+00
20 2.3146209247099998e+00 1.0990141345830001e+01 -5.2429335366620000e-01
21 -4.7901007969720002e+00 -7.1063647013419995e-01 2.8292123099689999e+00
22 1.7458334237610000e+00 -1.0285322733059999e+01 -4.3492917659200003e+00
23 -3.9027120672889998e-01 3.5359156124459998e+00 -2.5442041004910001e+00
24 2.9653182881559997e-01 -5.7384315190460002e+00 4.3259053736440001e-01
25 -3.2871349433649999e+00 3.4805938369230001e+00 -3.2847858580999998e+00
26 -3.4943286384040002e+00 3.1966962457900001e+00 -1.4606435252629999e+00
27 6.2382184528000000e+00 -1.3852346528560000e+00 6.1596774688810001e+00
28 -6.2327709650480001e+00 -1.6466100436660001e+00 -8.1808620654740007e+00
29 -6.2819430174060003e+00 4.0115568544629996e+00 -2.2865031334750001e+00
30 -5.7264925806080003e+00 6.4437813417019996e+00 1.0346493592410000e-01
31 1.0298083339000000e+01 -2.3283289175760000e+00 -8.1788918478240005e-02
32 -8.4043813824299995e+00 -4.3488382219270000e-01 1.2930129108890001e+00
33 -9.7395338728170000e-01 7.7142683011489996e+00 2.4112132809290001e+00
34 -1.9598464186889999e+00 -2.4497893582260000e+00 -2.2089779986839999e+00
35 8.5952849917709995e-01 3.9265987023599999e-02 1.1646453916760001e+01
36 -1.1484653615350000e+00 -9.7203837658490002e+00 8.6499448286590006e+00
37 -2.0745276095640000e+00 6.3698141907270003e+00 4.1345458527880004e+00
38 2.0753650940939998e+00 -3.1862200198110000e+00 -6.1128197583669996e-01
39 -1.3017488792830001e+00 -2.2090803573710001e+00 9.2457445666889999e+00
40 4.3586694897950000e+00 -4.5422320642980001e+00 9.5943653608189994e+00
41 4.1378155193180000e+00 -9.5371893044089995e-02 4.8016652858029998e+00
42 2.6402353348159999e+00 2.1576105502830001e+00 5.9226200635680000e+00
43 -3.9226494957850000e+00 -2.7677407749300000e+00 2.1885052728529999e+00
44 1.4553403352250001e+00 3.9691165589259998e+00 9.6508048921290008e+00
45 3.3067114097200001e+00 -2.5547135878370000e+00 4.5178093887840003e+00
46 -1.0459879426620001e+01 7.6787265578439996e+00 8.3165426411409999e+00
47 2.7205176815569998e+00 6.6694859123210000e+00 -1.9025972490270000e+00
48 4.1493527936129997e+00 -3.5304727241560001e+00 -1.6174806885140001e+00
49 -1.5941276597280001e+00 -5.3890053868149996e+00 -9.2884378525550009e+00
50 1.6024743267379999e+00 -5.6132386974520001e+00 4.7408051798460003e+00
51 1.3843520365410000e+00 -3.3123631070780002e+00 -5.7770638640019998e+00
52 -9.5576329288570001e+00 -2.0528969094149998e+00 -8.6323936880950001e+00
53 3.5724117359649998e+00 3.8047324911920000e-01 3.6273235973359998e+00
54 -2.1064219100230002e+00 -4.2282645335759996e+00 -1.2995383959470001e+01
55 -8.7456983963440005e-01 -9.1944260303180002e-03 -1.0411270575960001e+00
56 7.0519222299609998e+00 -1.3553326442310001e+00 3.2691901822160001e+00
57 4.5714697124650003e+00 2.0192415819749998e+00 -5.3122189681440002e+00
58 -5.4591354520169997e+00 2.4954506715279998e+00 -4.5908204095469998e+00
59 5.4921631366810004e+00 3.8250489872350002e+00 4.0014846156150004e+00
60 3.4671358635730001e+00 -3.4947912643989998e+00 2.1818595674780000e-01
61 -2.5495765107919999e+00 6.9766893932779999e+00 -1.9044731152120000e+00
62 5.3926377882490000e+00 -5.0556944502769996e-01 5.5877946428019998e+00
63 -5.6663322851169995e-01 5.4221437776889996e+00 -2.1889273674699998e+00
64 6.7808138107789995e-01 2.8516893838569999e+00 9.7697259409350001e-01
65 3.1366737967790002e+00 5.6520210688699999e+00 -1.0558164128470000e-01
66 3.5787855009279999e+00 5.3106863180839996e+00 -1.2017145463929999e+00
67 -8.8123616283850004e-01 -2.1617640989620002e+00 -9.0295411516979995e-01
68 1.5578975383140001e-01 6.6065863105159996e+00 -4.5279547121089996e+00
69 -1.8744155002259999e+00 -2.7196263312609998e+00 8.9500685201639996e-01
70 -2.8778071021440002e+00 -6.9320400057679998e-01 1.7546635196389999e+00
71 3.6241261561260001e+00 -2.2043873499669999e+00 3.9189178168719998e+00
72 -8.8318607400650002e+00 -7.0846471826729998e+00 4.3286958459750000e+00
73 -9.6151654748530002e-01 1.3020011511780001e+00 2.7320226396020000e+00
74 -4.5017674449250000e+00 -2.2711278426199999e+00 -2.5353313490580001e+00
75 -2.7216892360529998e-01 6.9752022249259999e+00 -3.8642774550620000e+00
76 5.3465473413050004e+00 -4.0594067946669998e+00 -1.6840757322860000e+00
77 5.0307041159079997e+00 2.7848703140579998e+00 -1.7732751792510000e+00
78 1.4740033632409999e-01 -6.9784853618309999e+00 -1.8704068601460000e+00
79 3.5512417647899999e+00 -4.8410842060360002e+00 1.2969030811480000e+00
80 -5.3069011261680004e+00 7.9261042251530001e-01 2.2149222497390002e+00
81 -6.0561382334860001e+00 -9.6850161525219995e+00 -9.3812936489349994e+00
82 -4.7410734601610001e+00 -4.1901943840140001e+00 1.7011372092159999e-01
83 -2.7435007538670000e+00 7.0415299466920001e+00 5.2105228529360004e-01
84 -4.9166982555949996e+00 3.7054299930079998e-01 2.4489417617139999e+00
85 6.3572093660980000e+00 -2.4676695301490001e+00 -2.7646459151550000e+00
86 -1.6473472751110001e+00 3.2990083624689999e+00 -3.3168835278639999e+00
87 -5.1817254198179996e-01 -8.4474881403159996e-01 1.8058221516580000e+00
88 -4.7044446914269997e+00 4.1758962087700002e+00 1.4662607793550000e+00
89 -4.3451014498470002e+00 8.6255705893390000e-01 -2.7536272408050002e+00
90 2.1054866404760002e+00 4.7262612854319999e+00 -1.5392491891080000e+00
91 -8.0463453510509997e-01 -1.4189717667349999e+00 1.4156223890460000e+00
92 4.4879434934329998e+00 -6.4532042376279997e-01 -6.5339840286530002e+00
93 -4.4840215411819999e+00 4.0737817536099996e+00 -4.1938103962089999e+00
94 6.4519443765259998e+00 -2.6546941908450000e-01 -2.1633676826100001e+00
95 -2.3273709722840001e+00 -2.5447964556430001e+00 4.6027551621810003e+00
96 4.3015283854920000e-01 -3.0255658395850000e+00 -6.9450355321190003e+00
97 -4.8988888845060004e+00 5.3975680651489997e+00 8.2012967790650004e-01
98 1.2369804706609999e+00 6.9761595246420005e-01 -2.3775904838959998e+00
99 -3.1851935985009998e+00 1.4468122071080001e+00 5.3660803814250002e+00
100 7.1092300855690005e-01 4.7307278542009996e+00 1.0246576171750000e+01
101 -4.8799731831250002e+00 -5.4438668488690001e-01 -3.6552142379820002e-01
102 -4.1793148712330002e+00 -5.4958867054220004e+00 6.1362701212350004e+00
103 -2.7629331939590000e-02 5.0585992802059998e+00 -7.6282307810429995e-01
104 1.5980790329570000e+00 -3.6836662081870002e+00 1.1413534548740001e+00
105 -2.4208663346399999e+00 6.7865187796889996e+00 4.3476629346009998e+00
106 -5.6982945561020004e-01 -1.1334288572930000e+00 2.7007174917630001e+00
107 -2.4656170039759999e+00 -6.8517344608779995e-01 3.6266965327730000e-01
108 1.8406918847470000e+00 1.5753838987680000e+00 2.6575534813260000e+00
109 -1.7332427515090001e+00 -2.5803140474799999e+00 -2.4715273486079998e+00
110 2.4143085442730001e+00 -4.6961448298689996e+00 -5.5255221762250004e+00
111 4.4732065033320003e+00 -9.4840768130660003e-01 6.1790655751720003e+00
112 6.0452273346770002e-01 4.5245438774320004e+00 3.2515157814069999e+00
113 3.6341003713069999e+00 4.2089780742810001e+00 1.4054698095060001e+00
114 -1.2198536995989999e+00 5.0261853076170002e+00 -1.3408327014829999e+00
115 2.5044439195360000e+00 -3.5304674801239999e+00 -8.0219004389189994e+00
116 -4.4013782916950001e-01 4.6060536426569998e+00 -1.1830107622079999e+00
117 -5.7928486455290003e+00 -7.1034576224829999e+00 8.5824490612450006e+00
118 -6.8611650866160003e+00 -6.6933715917449996e+00 -2.3711653856489998e+00
119 6.5680605437450001e-01 -8.5956928568790003e-01 5.8743010054229998e+00
120 -1.9180889847260001e+00 5.5279819410059998e+00 -7.9652051282349996e+00
121 2.3280166617100000e+00 -4.1395046408949998e+00 -5.1407373941980001e+00
122 1.5274163181570000e+00 -2.8532697958269999e+00 -6.5001786890019997e-01
123 2.2560376510450002e+00 2.9488561527839998e+00 8.8588814947350003e-01
124 -2.2388062174540000e+00 -1.4718134947329999e+00 -9.7543493485110000e-01
125 -3.8751180238979999e-01 5.6029215405330000e+00 4.8995092090480004e+00
126 6.8754867716729997e+00 4.7831885990489997e+00 -1.1913224408850001e+00
127 2.0576204526150002e+00 8.4943443829400000e-03 -1.3962314245400000e+00
128 7.2266147960179996e+00 4.4153676779279998e+00 -3.2286645779049999e-01
129 3.0872868117380001e+00 6.4253031083300005e-01 2.0888297608220001e+00
130 -3.6828156596219999e+00 8.6568091592549994e+00 -1.6988951827059999e+00
131 6.3988178148039998e-01 7.1902071928180000e-01 4.4804474826509999e+00
132 -5.3512617202490000e+00 8.5445906421660001e-01 3.0549640958980002e+00
133 -2.6503477819980001e+00 2.0784994288740002e+00 9.6789627117510005e-02
134 7.8339078210309996e+00 2.0631015449849999e+00 5.1140419114980000e+00
135 -1.0194099058849999e-01 1.0382374172830000e+01 -1.2153358730670001e+00
136 5.6536041251100000e-01 -2.9428900979040001e-01 2.7004427914289999e+00
137 3.9700843858039998e+00 3.2867333287420002e+00 -1.3550450634780000e+00
138 -3.9121234055800000e+00 7.8959139253760000e+00 -3.6856894768339998e+00
139 7.0490064475449998e-01 1.5580306647480000e+00 -3.6704422749640000e+00
140 7.0704105086139997e+00 -4.0127928456769997e+00 -1.9032071915819999e+00
141 2.0327428617579999e+00 -6.0202947098259996e+00 4.4601660366599999e-01
142 -2.2669830287789998e+00 -7.5140855086739999e-01 2.5026354041059999e+00
143 -1.8171402151220000e+00 -5.0343125292559998e+00 -2.2315217903629998e+00
144 -2.0423080590709999e-01 -1.6839062355790000e+00 -3.6373842305070001e+00
145 1.3399393623780000e+00 1.6008473364400000e+00 -6.2714200929189996e+00
146 7.6268659054410000e+00 -7.1078669821659997e+00 -4.0663526442200002e+00
147 -3.8383730332760000e+00 2.0636796614609998e+00 1.9765477158500000e+00
148 5.5055318471080001e+00 -7.0004705146860002e-01 -7.0414019321149999e+00
149 3.2397100371719998e+00 -2.9373957281090002e+00 6.1600842753880003e-01
150 5.8930014154329999e+00 4.2767368294250003e+00 1.3545798383490000e+00
151 -5.9398391740600003e+00 2.8130173728229999e+00 -6.6672616092199997e+00
152 2.0190279819070001e+00 -1.0091553556080000e+00 -5.0458075252330004e-01
153 -1.7011318347260000e+00 2.2343712133180000e+00 2.9128053474190002e-01
154 4.2819194983940001e+00 7.9164820617140004e+00 -8.1913623928960000e+00
155 1.3328279230760000e+01 2.1405708714410001e+00 -6.0936626450390001e+00
156 5.3571627551359997e+00 7.3327197757629996e+00 -1.7253080785229999e+00
157 -7.9360512306329997e-02 -1.8093158640170000e+00 -5.8072255911570003e-01
158 7.1733600434660005e-01 -1.4804498859220001e+00 2.6182977003640001e-01
159 3.7693671115370000e+00 -9.0460580076019994e+00 -1.6933931384740000e+00
160 -7.4162580157619995e-01 6.3569382896400004e+00 2.3979045576739999e+00
161 -2.1907718988339999e+00 6.3576658813319997e-01 -8.8423893106470003e-02
162 8.4022831549879995e-01 -7.8562153960360002e+00 3.5229670502469999e+00
163 1.6302155056450001e+00 -2.3998897438580000e+00 -2.2343942141289999e-01
164 3.7491849163270001e+00 -1.9926147683140001e+00 -3.5554604758980002e-01
165 -2.9343211415939998e+00 -1.6249044461400000e-01 3.7951007375680001e-01
166 -4.0103706857020001e+00 -1.7544519685369999e+00 -1.4459944553520001e+00
167 -3.3370263996050000e+00 -5.3264487486999998e+00 5.0665403038030004e+00
168 -4.9790984612029998e+00 -6.4696675090630000e+00 3.0613675040630000e+00
169 -6.8426325299209996e+00 3.2341503428100000e+00 -7.1771842326720003e-01
170 1.3013695103659999e+00 5.5169554507259999e+00 -1.1483746878609999e+00
171 -6.0539384706580002e+00 -2.8502404140110000e+00 6.4451271732339999e+00
172 5.1215394357459996e+00 -2.4218411668940001e+00 4.0198158428270001e-02
173 -1.7520092401039999e-01 -4.7672830729809998e+00 6.2078874352769997e+00
174 1.4444316270680000e+00 4.1725579921230000e+00 -1.7418860240550000e+00
175 2.5628731745229998e+00 -8.1432481487870003e+00 4.1814806301300003e+00
176 -2.9007121548739998e+00 -3.9599214419550002e+00 2.3609865087430002e+00
177 5.4824088462710003e+00 2.5418986962890000e-01 -1.1699946670629999e+00
178 1.0090563607109999e+00 9.8356886043039999e+00 -1.0648574416080001e+00
179 3.4898971790030000e+00 -7.4795986423540004e+00 3.9262370608940000e-01
180 2.7437797904549999e-01 1.5601758653910001e+00 -1.9242806525100000e+00
181 1.8916677521600000e+00 -3.9707474892930001e+00 1.1351980831630000e+00
182 -2.3921170425409999e+00 2.7226069852550001e+00 1.8871226447450000e+00
183 3.0533093130869999e+00 -1.8556068518800000e+00 -5.1082534505169996e-01
184 7.5586654173269996e-01 -3.8972501958349999e+00 -4.0106408117439996e+00
185 1.5179722001320000e+00 -5.1400992495409996e+00 3.9298600070730001e+00
186 3.3618998609030002e+00 -1.1694965003860000e-01 4.9013741780420004e+00
187 1.0874659961790001e+00 4.4355259945209999e+00 -5.7195949471389995e-01
188 -3.4421492537309999e+00 2.1432662332770001e+00 -1.3465590214590000e+00
189 -2.0305094817080001e+00 -2.1448434331130000e+00 -7.5244921529950002e+00
190 1.6936837487220000e+00 1.8817942245349999e+00 5.5724997128159997e+00
191 -7.0521374078649997e+00 -9.7013732958440002e-01 -6.1457350835430002e-01
192 2.0446742816270000e+00 -2.2236457985409999e+00 2.9267147090060002e+00
