LAMMPS data file extracted from NVT dump, timestep 1600000, units metal

192 atoms
2 atom types

0.0000000000000000e+00 1.6195563468200000e+01 xlo xhi
0.0000000000000000e+00 1.6195563468200000e+01 ylo yhi
0.0000000000000000e+00 1.6195563468200000e+01 zlo zhi

Masses

1 12.00000000
2 16.00000000

Atoms # atomic

1 1 4.3227669257140002e+00 1.3483821292700000e+01 5.5378981896489998e+00
2 1 3.7563819526860001e+00 8.1543994870829994e+00 1.4124266876889999e+01
3 1 1.4959740278610001e+01 4.2098099403839999e+00 4.9438409244599999e+00
4 1 4.6695407869620000e+00 5.3529900048529999e+00 1.0091582646970000e+01
5 1 1.2570223434880001e+01 1.3291959970920001e+01 6.8357079146890003e+00
6 1 9.4593265517729996e-01 7.9763062937999996e+00 4.3776475578690004e+00
7 1 1.0360452616720000e+01 7.1193461923730004e+00 1.4814857218709999e+01
8 1 1.0264048756299999e+01 1.5200906756269999e+01 1.0038893654680001e+01
9 1 1.3170221073690000e+01 4.5157274517430002e-01 1.7020086418880001e+00
10 1 1.2274049124899999e+00 3.2052668886809998e+00 7.3242866760409999e+00
11 1 1.1116575889550001e+01 4.4782021010589999e+00 2.7024304162770001e+00
12 1 9.2531504754749996e+00 1.1884941021020000e-01 1.8662700040560001e+00
13 1 1.4106870210360000e+01 4.5864666940470000e+00 4.7354465991360001e-01
14 1 1.0226543922150000e+01 1.2540932668920000e+01 7.2769029370479998e-01
15 1 2.2151092954470000e-01 1.5952997452220000e+01 4.9386329863900000e+00
16 1 8.5813500992820000e+00 1.5710858399859999e+01 1.4114405687110001e+01
17 1 1.4753232692370000e+01 1.2804490017070000e+01 2.6276593095199998e+00
18 1 8.3479875616080008e+00 1.1651820574289999e+01 7.8352860692580002e+00
19 1 8.5526877340049996e+00 1.2818475989960000e+01 1.1914422358400000e+01
20 1 1.4481263914230000e+01 5.9725125469479998e+00 8.1913437646209992e+00
21 1 5.5462089142639996e+00 2.1785836702600001e+00 4.5925486947470002e+00
22 1 9.6462598911240001e+00 9.3921456498720008e+00 5.1080931198229997e+00
23 1 6.6438063763980004e+00 5.2795685054470001e+00 2.3077313078940001e+00
24 1 1.4492999569260000e+01 8.1847537081370003e+00 1.4834122648039999e+01
25 1 1.3071203217290000e+01 7.9664084111740001e+00 1.0900459063650001e+01
26 1 4.0973952813089998e+00 1.5544083510180000e+01 1.2235061217460000e+01
27 1 4.7092577650490002e+00 9.8695349485109996e-01 8.1886731028819995e+00
28 1 1.3231788110080000e+01 8.2287006489269998e-01 1.4101468619929999e+01
29 1 1.4953981512229999e+01 1.0628269897139999e+01 5.9171008435069998e+00
30 1 7.2454676972199996e+00 1.2313365928400000e+01 3.4544676864300001e+00
31 1 3.5207556452330002e+00 3.3316327222659998e+00 1.4340425270570000e+01
32 1 1.0272496802160000e+00 1.2697330662899999e+00 1.2066038047710000e+01
33 1 6.9902170305489997e-01 9.9715222871049995e+00 1.1059404414359999e+01
34 1 1.3528210887970000e+00 2.0869914745000000e+00 8.8212738454590001e-01
35 1 1.2004022887800000e+01 7.7826877305890001e+00 7.2050928766659998e+00
36 1 1.1983374666960000e+01 9.5198999721829995e+00 1.6051351549790001e+00
37 1 6.3005505413160003e+00 1.2746385342769999e+01 1.5043899423359999e+01
38 1 4.9436741809709996e+00 1.2237002583700001e+01 1.0534659113960000e+01
39 1 4.9834529282749997e+00 1.2218601963939999e+00 1.0728339688770001e+00
40 1 1.4127702105359999e+01 7.3469860609940003e+00 3.0721877303250000e+00
41 1 7.5563653063900000e+00 5.9324620159909998e+00 5.8424553896370002e+00
42 1 1.8637987479550000e+00 1.4254280825089999e+01 8.5932456412189993e+00
43 1 8.5283223295939994e+00 1.5221082970590000e+01 5.7649867975970004e+00
44 1 9.6630571768689997e+00 2.9340411367449999e+00 7.8580224130670002e+00
45 1 1.5748602343760000e+01 4.8351590465949998e+00 1.3130856246940001e+01
46 1 9.6445730387259996e+00 2.7002896819130000e+00 1.4885948914329999e+01
47 1 1.2595657409910000e+01 8.2339148146889996e-01 4.8288507736010002e+00
48 1 8.7865303135109993e+00 6.0601896861500002e+00 1.0115563001360000e+01
49 1 2.3172726364949998e+00 7.4832922487670004e+00 8.4100378629560009e+00
50 1 3.1320039086359999e+00 4.5763323719450000e+00 4.3240324560339998e+00
51 1 1.4579403132650000e+01 1.2671539744500000e+01 1.0985972790060000e+01
52 1 4.9579763214870001e+00 9.1290334615620008e+00 4.4476230075120000e+00
53 1 1.3648952755120000e+01 1.1149420927120000e+00 9.3803593494249995e+00
54 1 7.2853336461489997e+00 8.8655255386210001e+00 1.1337554083929999e+00
55 1 8.7344272271189993e+00 9.0889594618430003e+00 1.0801749934349999e+01
56 1 1.7706827710519999e+00 1.4354879210160000e+01 1.4223577029099999e+01
57 1 8.0183155368029997e+00 2.1997602660659998e+00 1.1038613992889999e+01
58 1 7.1566264183830004e+00 5.3902851415830000e+00 1.4774543036470000e+01
59 1 2.4851656266900002e+00 1.2235225735669999e+01 2.8550042719889999e+00
60 1 1.2278498911850001e+01 4.4329792871820004e+00 1.1825212072659999e+01
61 1 1.6041222119150000e+00 1.0746195064909999e+01 1.5556222561660000e+01
62 1 5.3453654674289997e+00 9.3626578434510002e+00 8.6195628857069995e+00
63 1 1.3813055262410000e+01 1.2972996882500000e+01 1.4339681507050001e+01
64 1 1.4251382017170000e+00 6.0422842797029999e+00 7.9825715394210003e-02
65 2 4.5099434837020000e+00 1.4617103773640000e+01 5.6688326683810004e+00
66 2 4.0810067601480000e+00 1.2323959681820000e+01 5.2978323933010003e+00
67 2 4.6456827385219999e+00 7.5176542132459998e+00 1.4540101301869999e+01
68 2 2.9373590821160001e+00 8.9260085186290006e+00 1.3698373133020000e+01
69 2 1.5928733039959999e+01 4.8576388929560004e+00 4.9690900148460004e+00
70 2 1.4017866894270000e+01 3.5007624013609999e+00 4.9615157271139996e+00
71 2 5.3914981150469998e+00 4.6529270121459998e+00 9.5043190313949992e+00
72 2 3.9092048645660000e+00 6.0277495375859997e+00 1.0735994705970000e+01
73 2 1.3221939235760001e+01 1.3880579415630001e+01 7.6281181199850003e+00
74 2 1.2035217742600000e+01 1.2697538736209999e+01 5.9840651022440001e+00
75 2 6.1310620099540003e-01 8.1745092300630002e+00 5.4882731767399999e+00
76 2 1.1830952265240000e+00 7.7710343505999999e+00 3.2685238233640002e+00
77 2 9.6251820219590005e+00 7.9993792979769998e+00 1.4499387032940000e+01
78 2 1.1102276743490000e+01 6.2537228743410003e+00 1.5054607301880001e+01
79 2 1.0629736378890000e+01 1.4427248879250000e+01 1.0834975967820000e+01
80 2 9.8609948031319998e+00 1.6013453214609999e+01 9.2519602821089997e+00
81 2 1.2902925861510001e+01 1.5646927961659999e+01 2.2853403211150001e+00
82 2 1.3509637166030000e+01 1.4947134448120001e+00 1.2406189759920001e+00
83 2 1.6010771639620001e+00 4.0730470799259999e+00 7.9895938909090001e+00
84 2 8.4850197591450005e-01 2.3890843252870000e+00 6.5797100933510002e+00
85 2 1.1593966428320000e+01 5.3520045395290001e+00 3.3600249322770002e+00
86 2 1.0707008180690000e+01 3.6262149957409999e+00 2.0324606047609999e+00
87 2 8.4380381645630003e+00 8.9781157612090001e-01 2.0741758492429998e+00
88 2 9.9951285134780008e+00 1.5435183849100000e+01 1.7473874034340000e+00
89 2 1.3436034195130000e+01 4.4907175665410000e+00 1.5681617671810001e+01
90 2 1.4822326800070000e+01 4.7243459718059997e+00 1.4139513152070000e+00
91 2 9.6948667901679997e+00 1.2240590536230000e+01 1.7364220331700000e+00
92 2 1.0829833563879999e+01 1.2858238557600000e+01 1.5953013346020001e+01
93 2 1.6096113742250001e+01 1.6452142650650000e+01 3.9292412922310000e+00
94 2 5.0334400059509998e-01 1.5405620462090001e+01 5.9354217328310002e+00
95 2 9.0168117181660001e+00 6.5372130843450005e-02 1.3216610517050000e+01
96 2 8.2188991792370008e+00 1.5152099940050000e+01 1.5074008510680001e+01
97 2 1.4738917786009999e+01 1.3059781976429999e+01 3.7757962441710000e+00
98 2 1.4691556790220000e+01 1.2500336900410000e+01 1.4731739439210001e+00
99 2 8.5622004617569996e+00 1.1186942371110000e+01 8.8823275479940005e+00
100 2 8.1105919061490006e+00 1.2049830182910000e+01 6.7360782827400003e+00
101 2 9.1613814822750008e+00 1.2100035271410000e+01 1.2640670658259999e+01
102 2 7.9839540040349997e+00 1.3545303951919999e+01 1.1175563893600000e+01
103 2 1.4504369029090000e+01 4.8033414393770002e+00 8.1792797519710003e+00
104 2 1.4554441749270000e+01 7.1551792415959996e+00 8.2265606626600007e+00
105 2 4.9645640573790004e+00 1.2122057735859999e+00 4.2777866466590000e+00
106 2 6.0607160673199996e+00 3.1969510587390002e+00 4.9262774774520004e+00
107 2 1.0122893405250000e+01 9.7427188824749997e+00 4.1411983101469998e+00
108 2 9.2333736542080000e+00 8.9158104962990006e+00 6.1055237912329998e+00
109 2 5.5618579483030004e+00 4.9432618711340002e+00 1.9922547693749999e+00
110 2 7.6762053212870001e+00 5.8082444223370002e+00 2.6710084398189999e+00
111 2 1.3618083887979999e+01 7.4460020051509996e+00 1.4773132833580000e+01
112 2 1.5351224624289999e+01 9.0242005434449997e+00 1.4957344908700000e+01
113 2 1.3123114776320000e+01 6.8701210215920003e+00 1.0457790517319999e+01
114 2 1.3114841493269999e+01 9.0623936565619996e+00 1.1278762482039999e+01
115 2 3.0629529536170002e+00 1.5319850299690000e+01 1.1740485427559999e+01
116 2 5.1870745124009998e+00 1.5753446576040000e+01 1.2556812631700000e+01
117 2 3.7085345557479998e+00 8.5479253366870001e-01 7.5186152663480001e+00
118 2 5.6801536398649999e+00 1.2884589413920000e+00 8.7993123203539998e+00
119 2 1.4341685645989999e+01 1.0565834567560000e+00 1.3752587603360000e+01
120 2 1.2116499137870001e+01 5.8758351232340000e-01 1.4421498656510000e+01
121 2 1.5928036598840000e+01 1.1102987703300000e+01 6.3627944150189997e+00
122 2 1.4025162558090001e+01 1.0026320714920001e+01 5.5083184117149999e+00
123 2 6.7725337629200002e+00 1.3373600285460000e+01 3.3266367479590002e+00
124 2 7.7580849654830004e+00 1.1279208482910001e+01 3.5863838953070002e+00
125 2 4.1211188939149999e+00 2.3307105422070000e+00 1.4361228073170000e+01
126 2 2.9704090626780002e+00 4.3724085181110004e+00 1.4295581536849999e+01
127 2 1.8864246485100000e-01 8.0646712129200004e-01 1.1424865810949999e+01
128 2 1.8672373655390000e+00 1.7394665106170000e+00 1.2783389373800000e+01
129 2 1.5043775173259999e+00 1.0825627884979999e+01 1.0903115150310001e+01
130 2 1.2228189261450000e-01 8.9845608999139994e+00 1.1231212652430001e+01
131 2 1.8150790721100001e+00 3.1329722965230000e+00 6.6981719604830003e-01
132 2 8.6074140210759997e-01 1.0325463986159999e+00 1.0644050231140001e+00
133 2 1.2170180280720000e+01 8.8606540156490006e+00 7.6548835590779998e+00
134 2 1.1889765981489999e+01 6.6775002897210003e+00 6.8875826646159997e+00
135 2 1.1423258167909999e+01 9.2568986628779992e+00 5.9863617811460001e-01
136 2 1.2639524500940000e+01 9.7966327233729995e+00 2.5229082281330002e+00
137 2 6.0055353398879996e+00 1.2866896699380000e+01 1.3897691585110000e+01
138 2 6.5862055954620002e+00 1.2536087005340001e+01 1.6171830364670001e+01
139 2 5.0752120682330002e+00 1.1286322181710000e+01 1.1172414000480000e+01
140 2 4.6887431292209998e+00 1.3141972776270000e+01 9.8142855751530007e+00
141 2 5.8122672573029996e+00 2.0280768481610001e+00 8.9505757382640005e-01
142 2 4.0494504763560002e+00 4.9613438332630000e-01 1.2393752332210000e+00
143 2 1.4252575429429999e+01 7.5338005833740000e+00 1.9350296292350000e+00
144 2 1.3946802859370001e+01 7.2205648668390001e+00 4.2294281665510001e+00
145 2 6.5132782525500001e+00 6.3160134107279999e+00 6.1621008441100003e+00
146 2 8.6708583807739998e+00 5.5448042520880003e+00 5.6472805980100000e+00
147 2 1.8031253206430000e+00 1.5383683534299999e+01 8.7122778170339998e+00
148 2 2.0001814896569998e+00 1.3158757906480000e+01 8.3417178386900002e+00
149 2 7.4741402631579996e+00 1.5731196079640000e+01 5.5907759524639999e+00
150 2 9.6218376467740008e+00 1.4832386555519999e+01 5.9004349887769996e+00
151 2 1.0821972269210001e+01 2.9748104657029999e+00 8.1076521388489997e+00
152 2 8.5223597839590006e+00 2.8885259493939999e+00 7.6029224637819999e+00
153 2 1.5355879681570000e+01 5.9483188006169998e+00 1.2983101065560000e+01
154 2 1.6167184444000000e+01 3.7468307896350002e+00 1.3193748274030000e+01
155 2 9.1571876781290005e+00 3.1275119996209999e+00 1.3902442786980000e+01
156 2 1.0178476354780001e+01 2.3357214149019998e+00 1.5877758362390001e+01
157 2 1.2072037648460000e+01 1.7724109398950001e+00 4.4136557476869998e+00
158 2 1.3018121269300000e+01 1.5978028791850001e+01 5.1884999992239997e+00
159 2 8.3844668400020002e+00 5.5394706923130004e+00 1.1084625737210001e+01
160 2 9.1774369747360005e+00 6.4853020871830003e+00 9.1039226741460002e+00
161 2 1.5048142432680001e+00 7.6438841451719997e+00 9.2116031285299993e+00
162 2 3.1088315383679999e+00 7.2251011533550002e+00 7.5828048857060004e+00
163 2 3.4224355303939999e+00 5.5804222360670002e+00 4.8770820030520001e+00
164 2 3.0267019059660001e+00 3.5739870943010001e+00 3.7339472738010002e+00
165 2 1.4707161431690000e+01 1.3782250306980000e+01 1.1354896619950001e+01
166 2 1.4477622097070000e+01 1.1546660796430000e+01 1.0642783344530001e+01
167 2 4.9638081013119999e+00 8.9322741246249997e+00 3.2915955594930000e+00
168 2 5.0638558694690001e+00 9.3436298283069998e+00 5.5782111046749998e+00
169 2 1.3423869543129999e+01 1.7916076241900001e+00 1.0305033095030000e+01
170 2 1.3865918176199999e+01 3.9191090657619998e-01 8.4872974246330006e+00
171 2 6.3347527654129996e+00 9.0798326552899997e+00 4.2507864939340001e-01
172 2 8.2929837666560005e+00 8.7571286303630007e+00 1.7947779185299999e+00
173 2 7.6338527280969997e+00 8.8460173434389997e+00 1.0471464906300000e+01
174 2 9.8438915838250001e+00 9.3255307024579999e+00 1.1115606139150000e+01
175 2 2.5690364518980000e+00 1.3900503556789999e+01 1.4985236247550000e+01
176 2 1.0074980994210001e+00 1.4847543363170001e+01 1.3510894250780000e+01
177 2 8.9508345298640002e+00 2.4549850144090000e+00 1.0436916809470000e+01
178 2 7.1191643444250001e+00 1.7961256192620001e+00 1.1695882611300000e+01
179 2 6.4652033116430001e+00 5.0981971370519998e+00 1.3888713042339999e+01
180 2 7.8594821108669999e+00 5.7064023269220003e+00 1.5667277768730001e+01
181 2 1.4156918725840000e+00 1.2637108691750001e+01 3.1044396378100001e+00
182 2 3.5615980511949998e+00 1.1817486990050000e+01 2.6015498033200002e+00
183 2 1.1113150461089999e+01 4.6856931803139998e+00 1.1845176685940000e+01
184 2 1.3411606541139999e+01 4.1909415955800000e+00 1.2017066815060000e+01
185 2 1.1698923054579999e+00 1.1537763061510001e+01 1.4813441678489999e+01
186 2 1.9580395274719999e+00 1.0028180499870000e+01 2.1848750740690001e-01
187 2 5.0269090427879997e+00 1.0429886040270000e+01 8.2111454990869994e+00
188 2 5.5309248585760002e+00 8.2826478794730001e+00 9.0091360069640007e+00
189 2 1.4226057703220000e+01 1.1885486987060000e+01 1.4156207807159999e+01
190 2 1.3485991886880001e+01 1.4084153933990001e+01 1.4512349803099999e+01
191 2 5.3151234581859996e-01 6.0472230490549999e+00 1.5501682613880000e+01
192 2 2.1603326867649999e+00 6.2051690613990003e+00 9.8785934358009997e-01

Velocities

1 6.0334392760519995e-01 9.1017623017540004e+00 1.4870287488759999e+00
2 -5.0474401822930002e+00 -2.8438984908560001e+00 -2.7721005674480002e+00
3 -3.7008096311939997e-01 1.2153293514650001e+01 3.7710364481070002e-01
4 -6.8211198865749996e+00 -4.6874555543290004e+00 3.7593598054270000e-01
5 7.2272435035219997e+00 -5.6475474238589998e+00 7.0977910380919997e+00
6 -1.1323825305649999e+00 -2.4393136088579999e+00 -4.2256719202650004e+00
7 8.0166940053780000e-01 5.1099138135170001e+00 5.4820096561349996e-01
8 -8.0808929476279996e+00 -4.4787372739769999e+00 -3.4988411693119997e-01
9 -1.9135791504280000e-01 -1.2419803364440001e+00 5.0586538226039997e+00
10 1.4823136331200000e+00 7.1999474852149996e+00 8.9494722136520000e-01
11 -1.4144467040519999e+00 9.4573723135119998e+00 -2.9030598177570002e+00
12 1.1078772963100001e+00 -1.8990802641580000e+00 -8.0336500358420004e-01
13 -1.1228763027030000e+01 -5.1095999394289997e+00 6.0584970298879997e+00
14 -3.2438831073820000e+00 -3.0051101481000000e+00 8.7642041417909997e+00
15 6.4704387088889996e+00 9.8749891254489999e+00 5.7376473976650004e+00
16 -4.2222868942120000e+00 3.5578457247430002e+00 1.5067400402610001e+00
17 -1.9041522818070000e+00 -5.9025018234049997e-01 2.5699864247409998e+00
18 -1.7865219580120001e-01 1.8820811595930000e+00 3.2734996800600000e+00
19 -9.2887817456319999e-01 1.6707914888319999e+00 1.2440742900389999e+01
20 2.2467636850020001e+00 2.7445384792069998e+00 4.8361876827139998e+00
21 -5.5574136605520001e+00 4.9316674764700004e+00 -1.2692126485420001e+00
22 -1.1413693247829999e+00 6.3533844417109997e-01 -1.6641309716929999e+00
23 -3.2065472110269999e+00 5.1204851202830000e+00 7.7808472195330003e+00
24 3.6698498883520001e+00 -8.8810010491319993e+00 -3.9099577433940000e+00
25 -6.9542939739870002e+00 -3.0306009097440001e-01 -1.2313422387660000e+00
26 5.4031675149509999e+00 3.5658122323349999e+00 -5.9147104122829997e-01
27 -2.1678430622230001e+00 3.8131088559989998e+00 2.2989925686500001e+00
28 1.7877470976109999e+00 3.5146077659819999e+00 -2.6626962345020000e+00
29 1.9213794881880000e+00 3.5853239051479999e+00 -4.5636279372899997e+00
30 3.1769751389860001e-01 -6.0819967466770004e+00 -3.2660517502019998e-01
31 -3.1728923505819999e+00 -2.8025950419730000e-01 -8.9765634071360001e+00
32 3.5395886554149998e+00 5.6314865988970002e+00 -6.6928110014000000e+00
33 -5.4291749510249998e+00 -3.3650146743699998e+00 2.5178990385629998e+00
34 3.6582211429500000e+00 6.7484082454770000e+00 1.8500977214959999e+00
35 -2.2707141503030002e+00 1.8071888960130000e+00 -5.8948506928070001e+00
36 -1.0517610312440000e+01 -1.8621144967830000e-01 4.5497642403449996e+00
37 -2.6449748887199998e-01 2.2629210544929999e+00 -9.7507532298889998e-01
38 6.2630456405309998e+00 -4.0856455683339998e+00 -7.2858319524419999e+00
39 -1.0704040500730001e+00 1.6900066267180001e+00 1.8662678329639999e+00
40 -1.9711739776470001e+00 4.6651221325550001e+00 -3.2319397128110001e+00
41 -9.3780005729450000e-02 1.3503231750639999e+00 4.1876248185699998e+00
42 -6.3786100252000000e-01 4.0855707902390002e+00 -1.0294561676630000e+01
43 3.1310541786520001e+00 1.5541736708900000e+00 -1.6533512793850000e+00
44 2.6840905482920001e+00 2.4725802364409999e+00 -1.6900685086609999e+00
45 -1.1607263601810001e+00 6.5333246232009996e+00 -1.8620073178600001e+00
46 -7.1157413640260003e-01 -3.0263387662660000e+00 -1.3858596283269999e+00
47 5.6122790965430003e+00 -6.0921259516879998e+00 -2.3729325733579998e+00
48 4.9203893913680004e+00 -7.7048466947640000e+00 -2.5857539073860001e+00
49 5.4529839687489998e+00 -7.5774270221649997e+00 -1.4201715162570001e+00
50 2.4162464616740000e+00 -8.9650466738100008e+00 1.1870135919070000e+01
51 7.3589352253520000e+00 -6.5027410548760001e-01 -8.0451282337030001e+00
52 2.4482993227190000e+00 -2.9247410198260000e+00 1.5499001666660000e+01
53 1.6789364885419999e+00 1.4854867848740001e+00 5.4103281831540002e+00
54 7.7660982506840004e-01 4.9873710880919999e+00 5.2106763588809999e+00
55 4.6027040460669999e-01 2.3152139214780001e+00 -2.0227280740450002e+00
56 2.5013872470930001e+00 7.6132896125049998e-01 9.0487762742949995e-01
57 -3.6020759348159999e+00 -5.7189540113820003e+00 1.0058414261749999e+00
58 -2.6879970017470001e+00 3.6002134225579998e+00 -2.7665818655800001e+00
59 -8.1138628410949991e+00 3.3083069411550001e+00 3.3281558951190000e+00
60 -4.0323496214469996e+00 5.3450673438600003e+00 -1.1924061395360000e-01
61 -5.8567088248679999e+00 -1.4645685786620000e+00 5.5962364137679996e+00
62 6.0795922174249994e-01 2.2657069399230001e+00 -2.1279516214740002e+00
63 7.0734042990020001e+00 -4.1244186277010000e+00 -2.1708510773729999e+00
64 1.4526335009489999e+00 7.7909750257410000e+00 3.8983185321269997e-01
65 6.3378812251039998e+00 1.6304109431639999e+00 3.7457459474929999e+00
66 3.7657228679660002e+00 2.1477153548720000e+00 1.9886489956780000e+00
67 -7.6557617176949999e-01 -6.0927338280649996e+00 2.7939312538420000e+00
68 1.1411277620360000e-01 2.9636642577890000e+00 3.6588511966890001e+00
69 3.1293187817430002e+00 -1.2896101628020000e+00 -3.5604560890690000e+00
70 -2.8467986058290000e+00 6.5840813351469996e-01 3.5383523678180002e+00
71 9.2293035716880001e-01 -5.9555441811060001e+00 -3.1292408630730000e+00
72 -2.8655225287990000e+00 -3.3850304502320001e+00 4.8559599866619996e+00
73 -1.1425991572470000e+00 -2.4002920889110002e+00 1.0226179405260001e+00
74 -2.1450770270530000e+00 9.2690645173410002e-01 -2.6404071655979999e+00
75 4.0342926822190002e+00 -4.3246564792509998e+00 5.3775847150820004e+00
76 -8.3525428950439995e-01 -1.2592899524540000e+00 4.0140041978610003e-01
77 -1.1846772789110001e+00 -6.3496397933750002e+00 2.5269688968500001e+00
78 6.4632129070349997e-01 -5.1127958239810001e+00 2.4933441612130000e-01
79 7.5898908794719999e-02 -7.4992511531119996e+00 -1.0279334240239999e+00
80 1.0933325768190000e+01 -6.7542766208570004e+00 6.6733779295200000e+00
81 7.9575611577289995e-01 8.7614647855969996e-01 -6.0261569088469997e+00
82 -2.7798404903720000e+00 9.3491887018880004e-01 2.8898967558200001e-01
83 8.6875941084079999e-01 -4.7888811597340002e+00 -2.2506128601960000e+00
84 -5.7955480405860005e-01 1.6127235212030000e+00 3.0416796928649998e+00
85 -3.8974594457329998e+00 -2.0947803838280001e+00 -3.5898334597060000e+00
86 3.7270306018900001e+00 -1.4770764677020001e+00 -1.1480284429990000e+00
87 -1.1335727888170000e+00 -2.9280403932490001e-01 -8.1314464374609996e-01
88 1.9530413112189999e+00 -3.8193277875900000e-01 -3.3355253369320002e+00
89 -1.5574166741359999e+01 1.1697325921240000e+00 9.4025115155899996e-01
90 -9.9654913200149997e-01 1.4935861313450001e+00 -2.4955240239780001e+00
91 1.2241701973720001e+00 2.9089693850049998e+00 -9.0132652516490008e+00
92 -2.0460170530489998e+00 -2.5770646908999999e+00 2.1695913674949998e+00
93 -3.1632906585630001e+00 9.2785091434540004e+00 4.6015353621499999e+00
94 -9.7733917126109997e+00 2.1749031012560001e+00 2.9983612755409998e+00
95 1.0810087777680000e+00 -1.2302564642460000e-01 -3.9469154198120000e+00
96 -1.4404080505559999e-01 -4.7404321582679998e+00 5.2460269295700003e-02
97 7.3648428142759998e+00 2.5587131610079998e+00 3.7038734432570002e+00
98 1.1283748041960000e+00 -2.5944288162000002e+00 -2.4600315953700000e-01
99 -6.7281700711310002e+00 4.6313989142279999e-01 6.8402706082440003e+00
100 4.9510305670700000e-02 -1.0018385010920000e-01 -2.2852200177739999e+00
101 2.0134977814189998e+00 -5.4869783540889996e+00 3.6826115705309999e+00
102 -4.1314897014150000e+00 5.1860575936800002e+00 -3.9083371806780001e+00
103 3.6995639032660002e+00 -1.4574747103820000e+00 7.4226296540760002e+00
104 4.1608670312059998e-01 -2.1762475294139998e+00 3.1962993007320000e+00
105 4.1950289889820001e+00 -4.8047520721080001e+00 -1.8648639136380001e+00
106 2.6061026478759999e+00 -3.2049649135939999e+00 2.4842124964629999e+00
107 -1.1393276569899999e+00 3.6282638017550002e+00 -1.2344819843760000e+00
108 2.4313002819989999e+00 -1.2188200646039999e+00 -3.8292862342179999e+00
109 -2.1330700003610001e+00 -8.0746214471060007e+00 1.9079717099419999e-01
110 4.4058468670800002e+00 6.8319009541779998e+00 -4.3896256733339998e+00
111 6.1004769910660004e+00 2.7674277843590001e+00 -4.4595834308590003e+00
112 1.1966790684590001e+00 1.6676403964380000e+00 1.4409892464880001e+00
113 -6.0477000352069998e-01 -7.5390546501930000e+00 1.1901124732160000e+00
114 4.0432289187510001e-01 -6.4187283981869996e+00 3.6330442047200000e+00
115 -2.9866591705989998e-01 9.6813296312510000e-01 -2.8075676159770002e-01
116 4.0281406857529998e+00 -5.3877025354240002e+00 -2.5738101264830000e+00
117 1.4583021431370000e+00 7.6474037368240000e-01 -1.0517257083630001e+00
118 3.5544448514439999e+00 3.9951660083889999e+00 -1.6919649146219999e+00
119 -9.6464532677170006e-02 2.5557946265530002e-01 1.9849861440779999e+00
120 -3.2828541392889998e+00 2.7745761691790000e-01 -2.4706228460410000e+00
121 4.4138801708360003e+00 -2.0984306636770000e+00 8.0951248077080002e+00
122 1.3776353136270001e+00 -2.8031697700230001e+00 2.3671365190630000e+00
123 -6.1975862107369997e+00 -1.1605195509130000e+00 -7.5336495815889997e+00
124 4.5687870746439998e+00 -1.8882284314930000e+00 3.9382223714150002e+00
125 -8.6669635886130003e-01 -6.8790386746989995e-01 -2.1624162269870002e+00
126 7.1588798140199996e+00 3.9043051690380000e+00 2.8038259354620001e+00
127 -1.5576793369100000e-01 -5.5605148277690003e-02 8.0979169017980002e-01
128 3.4165574525540001e+00 -9.1039750143859999e-01 1.5162001775309999e+00
129 2.8756527124789999e+00 6.6536106788630001e+00 4.4533419630719999e+00
130 -4.2789917030130002e+00 -5.6520565164730003e+00 5.7755960289450003e+00
131 -2.6867510104029999e+00 -2.4755959404570000e+00 -2.0804352945370002e+00
132 -5.8513275501750002e+00 9.1000548030540003e+00 -4.6159304444159996e+00
133 3.6267646978640000e+00 -2.4013717632620000e+00 -3.6764993403370001e+00
134 1.5723550659249999e-01 4.1744536253270001e-03 4.6866791448529996e+00
135 3.3150486680940001e+00 5.8505198528360003e-01 2.9839331402170002e+00
136 -2.2161224023710000e+00 -7.2433535129650002e+00 -8.3387273999070004e+00
137 9.0104538529809997e-01 -5.3592030322869997e+00 -4.0161997275379999e+00
138 -4.6705539995759997e+00 -4.0961013322469997e+00 9.8770871465580008e+00
139 3.8623849769160001e+00 -3.4164788981320000e+00 -9.5219149799979996e-01
140 4.7769341313279998e+00 -4.2955692122069999e+00 -2.2219466134110002e+00
141 -2.7997148450420002e+00 -4.1445085713219998e-01 2.5335181284339998e+00
142 -7.3943169171149998e+00 3.2354163638750002e+00 1.0223889169839999e+00
143 -1.6677998197760000e+00 9.7967232954259997e-01 -3.7716436721019999e+00
144 -7.1886952088670002e+00 2.1236965637159999e-01 -1.8977778800670000e+00
145 -1.4691163511350001e+00 1.2559880433010000e+00 -1.2133536067320001e+00
146 -2.6061316823539998e-01 -4.9079163949710001e+00 -1.0614473550310001e+01
147 3.9342503959140002e-01 3.2164643556660000e-01 -5.4869704647399997e+00
148 -7.5634955267210002e-01 -5.2130277852500004e+00 4.0507092587819997e+00
149 -5.1978160671760003e+00 3.0601898484560000e+00 3.8775416745730000e+00
150 -3.6825134918650000e+00 -6.0564998198020001e+00 -3.8985957283360002e+00
151 -1.8078546952179999e+00 -1.3778619490860000e+00 3.6616943886660001e+00
152 2.1609814597220001e+00 -1.5503759445620000e+00 -4.6780113141930002e+00
153 1.7654085770529999e+00 -2.9877366689480001e+00 2.2184619787190001e+00
154 2.7030015956810001e+00 3.1655671135199999e+00 1.4883016628970001e+00
155 -2.8793900267639999e-01 7.6371020071289997e-01 -3.3248252471019999e+00
156 2.2968311472499998e+00 2.8165996151810000e+00 6.9680679478960004e+00
157 1.1591121792219999e-01 1.4306946052780001e+00 7.3415829447379999e-01
158 3.3224282958860001e+00 1.4450158060439999e-01 -9.4670931607069997e-01
159 5.3572123932349998e+00 4.4184759964579996e+00 -2.4547422943260000e+00
160 2.6049188690470002e+00 5.9644040890049999e+00 1.0602755377240001e+00
161 1.2536176082299999e+00 -4.0289649595240000e+00 4.8644780574919997e+00
162 1.5510427166520000e+00 -3.3276654994220001e-01 -3.8340257000269999e+00
163 3.2139479320820001e+00 3.5186588813310000e+00 -1.9544576294989999e+00
164 -3.5326462404640000e+00 4.8437324511269999e+00 -7.1291657329269997e-01
165 7.3257855653759996e-01 -2.3793656931080001e-01 -6.1516751565970003e+00
166 1.4197972245429999e+00 9.6362928720759999e+00 -7.7674873318179998e+00
167 3.8949468192780001e+00 4.9551511128390002e+00 1.8360673153850000e+00
168 1.0529552324289999e+00 1.3359108614410000e+00 -1.2859319140610001e-01
169 3.1135111021699999e+00 4.6696299430880002e+00 -7.9329339210979999e+00
170 3.8491500901140001e+00 1.4403637332510000e+00 4.0666733968380004e+00
171 5.6401099564140000e-01 8.4434830795890004e-01 -1.8417589647229999e+00
172 1.4476912099860000e+00 2.3719067318009999e+00 3.5745035278669999e+00
173 2.9912126668100001e+00 4.3251308081750004e+00 -2.7612709855760000e+00
174 -3.2133377431880001e+00 7.1583746917309998e-01 2.6359088401940001e-01
175 3.4508453337730001e+00 5.3166907718000003e+00 -5.2264123368520004e+00
176 9.7219774962299998e-01 -9.0656427110659998e-01 -3.3511858803279999e+00
177 -1.1689644646860000e+00 1.0829330537470000e+01 2.0742290607139999e+00
178 -8.3222761999279999e+00 -4.0675588521039998e+00 1.0203301956140001e+00
179 -1.8892918726440000e+00 5.1662062067520003e+00 -1.3507626762200000e+00
180 -5.8537544494780001e+00 -8.8678000637120000e+00 -1.0171869711610000e+00
181 -5.2674740430150004e+00 -4.7828500963350002e+00 -1.8774399052810000e+00
182 1.4093835008769999e+00 -3.3226906021440001e+00 -2.9500396921499998e+00
183 -2.1603184310510000e+00 -2.5915412450050002e+00 2.7286058306580001e+00
184 5.2166151055750003e+00 2.2460271023480001e+00 -9.9484948111969995e-01
185 3.5718558151230000e+00 -4.3810400131830002e-01 -5.5626185630110003e-01
186 -7.1641894707789999e-01 6.8433887381030001e+00 -6.9544419585670003e-01
187 -2.1956310684229998e+00 -3.6685208680430001e+00 -5.6512114200389996e-01
188 2.8045863954860000e+00 8.0422557544429996e-01 -5.5724141447509998e+00
189 -2.9847524440640001e+00 1.3315973902560001e+00 -1.0342811139170000e-01
190 -1.9151606658000000e+00 5.3912428403660000e+00 -9.3510823869689996e-01
191 -1.8400854420880000e+00 -3.1085947073220002e+00 8.9800156674789999e-01
192 -2.3260887620899999e+00 -5.3776610731440000e+00 -3.3495766720939999e+00
