LAMMPS data file extracted from NVT dump, timestep 940000, units metal

192 atoms
2 atom types

0.0000000000000000e+00 1.6195563468200000e+01 xlo xhi
0.0000000000000000e+00 1.6195563468200000e+01 ylo yhi
0.0000000000000000e+00 1.6195563468200000e+01 zlo zhi

Masses

1 12.00000000
2 16.00000000

Atoms # atomic

1 1 1.1445888684659999e+00 5.5577073709439997e+00 6.7186224449300003e+00
2 1 1.4073537709169999e+01 1.6761462098830000e+00 4.2696369254770001e+00
3 1 1.3224084873110000e+01 1.0104477729479999e+01 5.3436936408779996e+00
4 1 1.1870826203020000e+01 7.5874402921420003e+00 1.1378347367750001e+01
5 1 7.7735314229789996e+00 4.7449673965089998e+00 1.3911547783900000e+01
6 1 1.9823323904779999e+00 1.3858718651799999e+00 9.4847659060729992e+00
7 1 1.0437744984409999e+01 8.1533027385429993e+00 7.9155683123499996e+00
8 1 3.2794235271569998e+00 9.8627839339409995e+00 1.4761723896820000e+01
9 1 1.1558982573880000e+01 9.9008249642729993e+00 1.4977689057879999e+01
10 1 7.5429764860550002e+00 2.4053203098300000e+00 5.1523373109720003e+00
11 1 7.3315909932799999e+00 9.8700661133209994e-02 1.3312329505159999e+01
12 1 4.3748988999299998e+00 1.2830769404630001e+01 8.2356417042069996e+00
13 1 9.3693992603159995e+00 5.2662525066099999e+00 9.8081866310169996e+00
14 1 8.2560728945849995e-02 6.7896085132539996e+00 1.2861638863860000e+01
15 1 7.6002623374059999e+00 1.0101853641570000e+00 1.4336980071620000e+00
16 1 6.3979772939990003e+00 2.0070891742649999e+00 1.0714134872980001e+01
17 1 1.5608413620760000e+01 1.6008296161330001e+01 1.2483192052370000e+00
18 1 5.1327875477350000e+00 5.4985163240509998e+00 1.0127416172320000e+01
19 1 1.0176327960729999e+01 1.2679946753330000e+01 3.2887642644150001e+00
20 1 7.6888227468040000e+00 5.9334376256040002e+00 5.9529686005749998e+00
21 1 1.0254218806080001e+01 3.2184781767390001e+00 1.7196435543980000e+00
22 1 1.4180777227089999e+01 1.0997698989350001e+01 1.2234884688010000e+01
23 1 7.0035369370420000e+00 8.6661579780310003e+00 8.9998788107020005e+00
24 1 3.3132500679299999e+00 1.7213577656320000e+00 1.1333268688389999e+00
25 1 3.2654321316030002e+00 2.8111883527399999e+00 1.3712673770829999e+01
26 1 1.1379029857640001e+01 1.6174272614860001e+01 6.4898741749230004e-01
27 1 5.4477369825680000e-01 1.4383073093189999e+01 1.3482727198619999e+01
28 1 1.2293588528990000e+01 5.3825041660600004e+00 1.5676194734890000e+01
29 1 1.4043780429160000e+01 1.4131561460400000e+01 5.5087508803349996e+00
30 1 3.6209888187260000e+00 8.4533388396439992e+00 6.6443820317839997e+00
31 1 2.2438108915220001e+00 1.1655891065599999e+00 6.2329838564199997e+00
32 1 1.1073982641440001e+01 1.6080818152340001e+01 5.0501192928269996e+00
33 1 1.2944931189969999e+01 5.4097093943539996e+00 5.9547045805029999e+00
34 1 5.5704959071499998e+00 7.7643767102899997e+00 1.2265494489410001e+01
35 1 4.4967319428910002e-01 1.2638808586800000e+01 1.8309870043390000e+00
36 1 1.4721421220730001e+01 2.7322669912230002e+00 7.9716650885220002e+00
37 1 3.6079144484149998e-02 1.3854284715740000e+01 9.2518832768629995e+00
38 1 3.5013851417569999e+00 1.3561283592730000e+01 1.3576455609360001e+00
39 1 4.2758606600580000e+00 4.4352506899649997e+00 5.3625180392739997e+00
40 1 4.5286958031450002e+00 1.3937181192580001e+01 1.1290914603359999e+01
41 1 8.3761131183269999e+00 8.5284348320099994e+00 1.6217353408289998e+01
42 1 7.9151413135290003e+00 9.8285633877960006e+00 4.2803486957760004e+00
43 1 5.4745039676700002e-01 8.2439345851929993e+00 2.8031705400079998e+00
44 1 1.3603016103360000e+01 1.5327068859880001e+01 1.1909982867709999e+01
45 1 6.8018179826299996e-01 1.1525254544070000e+01 6.0450210508510001e+00
46 1 1.1586670972509999e+01 1.6221383337799999e+00 1.3389184935210000e+01
47 1 2.2570837815660001e+00 1.0410387029950000e+01 1.0123273293160000e+01
48 1 6.2720159636470001e+00 3.6828867594560000e-01 7.5393135023789997e+00
49 1 7.0766662638700000e+00 1.2788641771369999e+01 1.0949907118480000e+00
50 1 9.3390078641500001e+00 1.2627756617079999e+01 7.8763260126869996e+00
51 1 1.4462023262440000e+00 5.1569302022789998e+00 2.5399577989580000e+00
52 1 5.8851527408360003e+00 1.3606358987460000e+01 4.5504965089480001e+00
53 1 1.5370551908360000e+01 8.5540967589289991e+00 8.5165573783680006e+00
54 1 8.1725854819560002e+00 5.5068177078950002e+00 2.6574184586850000e+00
55 1 9.9705395088820001e+00 1.3352186401750000e+01 1.4083074447010000e+01
56 1 6.7090101940669999e+00 1.2327900826650000e+01 1.3563651556709999e+01
57 1 1.2000383656189999e+01 8.3462113613890008e+00 2.1377144988220000e+00
58 1 5.1283181081580000e+00 6.2481438159240001e+00 1.0896124450110001e+00
59 1 1.1300976488750001e+00 5.4443840166350004e+00 1.0047325917809999e+01
60 1 1.3621791636739999e+01 1.3254540326560001e+01 3.7841404102900000e-01
61 1 3.9051395638819999e+00 1.0195828095750000e+01 2.8789429500720001e+00
62 1 1.3269973743890001e+01 4.8700992978770001e+00 9.7594626930720008e+00
63 1 1.1717585045010001e+01 1.5761504677240000e+01 8.9259906618119995e+00
64 1 9.3623899847090009e+00 1.0776877502630001e+01 1.1707558671350000e+01
65 2 1.5878376964130001e+00 4.5166813488489996e+00 7.0210390944499999e+00
66 2 8.1126826903539995e-01 6.6125014934369997e+00 6.4367684622150003e+00
67 2 1.4447279401639999e+01 1.5610111809189999e+00 3.1710922150649998e+00
68 2 1.3697237823120000e+01 1.7034285401400000e+00 5.3783637295859998e+00
69 2 1.4168365345700000e+01 1.0063209031370000e+01 4.6147556836829997e+00
70 2 1.2276307537759999e+01 1.0169319736589999e+01 6.0099195779240002e+00
71 2 1.1376092216250001e+01 6.5628225164679996e+00 1.1298073511320000e+01
72 2 1.2342943301800000e+01 8.6571650461449998e+00 1.1606646955020000e+01
73 2 7.4998056315290000e+00 4.2905702841680000e+00 1.2874536810060000e+01
74 2 8.1417370927139991e+00 5.1391644961480001e+00 1.4945742572489999e+01
75 2 1.5009396654080001e+00 2.4426792672589999e+00 9.1645731814579996e+00
76 2 2.2351617880369998e+00 3.2320529022229999e-01 9.8805721900390004e+00
77 2 1.1055656071980000e+01 7.7103068517880002e+00 7.0317661692889999e+00
78 2 9.8395849121639998e+00 8.5973144109409994e+00 8.8459171196799993e+00
79 2 2.5708018976479998e+00 9.0988983430410002e+00 1.5245254049160000e+01
80 2 4.0103081493810002e+00 1.0621970912560000e+01 1.4222207695260000e+01
81 2 1.1451972386540000e+01 1.1046312057130001e+01 1.5159819598930000e+01
82 2 1.1821599937780000e+01 8.7852962215310004e+00 1.4783847312660001e+01
83 2 8.6674510701879992e+00 2.5562028485060000e+00 4.9458178935439996e+00
84 2 6.4231476523940003e+00 2.2532298842060001e+00 5.3915889142299998e+00
85 2 7.1388315739959998e+00 1.1654595858760000e+00 1.3699998012180000e+01
86 2 7.6023549490800004e+00 1.5229185871080000e+01 1.2811092084600000e+01
87 2 3.8079189661639998e+00 1.3274764861100000e+01 7.3184194963589997e+00
88 2 4.9361012473150003e+00 1.2345306836860001e+01 9.1786698233759996e+00
89 2 8.6968485487630005e+00 5.9283771280280000e+00 1.0487017473460000e+01
90 2 1.0049917983689999e+01 4.7121744398579999e+00 9.0241082659029992e+00
91 2 1.2164441356660001e+00 6.9135417893389999e+00 1.2631282006070000e+01
92 2 1.5165029423329999e+01 6.5615163434700001e+00 1.3008395994160001e+01
93 2 6.7653268257699999e+00 1.2595934061800000e+00 6.8018318078289997e-01
94 2 8.5811560769880000e+00 8.7802826595130001e-01 2.1259514071900001e+00
95 2 5.3456908557889999e+00 1.8363001819180000e+00 1.1258783703710000e+01
96 2 7.3526161972680004e+00 2.0601677829199998e+00 1.0010286586010000e+01
97 2 1.6108175129159999e+01 7.1250205278019996e-01 7.0754411859870003e-01
98 2 1.5207838450000001e+01 1.5076050736970000e+01 1.8527497838060001e+00
99 2 5.7365790777000001e+00 6.0124131967699999e+00 9.2674991035929999e+00
100 2 4.5584759676989997e+00 5.0737096093250003e+00 1.1059854443360001e+01
101 2 9.5877601147709992e+00 1.3276638891210000e+01 2.4660595022920000e+00
102 2 1.0668047640679999e+01 1.2099803162710000e+01 4.1577472735530003e+00
103 2 7.0681822245210002e+00 6.6449848069030004e+00 5.2796553455239996e+00
104 2 8.2754935940180001e+00 5.3428633814520001e+00 6.7915756303040000e+00
105 2 1.0821990931240000e+01 3.3847414762660000e+00 2.7396989149289999e+00
106 2 9.6941938669100001e+00 2.9643207970619998e+00 7.0562735432220003e-01
107 2 1.3704274391460000e+01 1.1344120281990000e+01 1.3238306478280000e+01
108 2 1.4749352996590000e+01 1.0765564005580000e+01 1.1222484280710001e+01
109 2 7.3264610537969999e+00 8.7664989393420001e+00 1.0124222466050000e+01
110 2 6.6196292007400004e+00 8.3049411739710006e+00 7.9319881903849998e+00
111 2 3.6063196191669999e+00 1.6986494473980001e+00 7.6864687325349998e-03
112 2 3.0596353819880000e+00 1.7022020026800000e+00 2.3005789859090000e+00
113 2 3.2477192900969998e+00 1.7283415844270000e+00 1.3262447064660000e+01
114 2 3.3441855568299999e+00 3.9400771310759999e+00 1.3985004783660001e+01
115 2 1.0620132923030001e+01 1.5525471802249999e+01 1.6198276572720001e+01
116 2 1.2058774288810000e+01 6.3582518056149995e-01 1.3726196711700001e+00
117 2 2.9356041315850001e-01 1.5466337285750001e+01 1.3091086757859999e+01
118 2 9.1885540791840004e-01 1.3316635801509999e+01 1.3793672495770000e+01
119 2 1.1335238700340000e+01 4.7337537652560000e+00 1.5468282833090001e+01
120 2 1.3243073707650000e+01 6.0744788330809998e+00 1.5829987979129999e+01
121 2 1.3584278166060001e+01 1.3148709854340000e+01 5.1478993317140000e+00
122 2 1.4424885128260000e+01 1.5139813728609999e+01 6.0488037521470002e+00
123 2 3.6741499310400001e+00 9.2551297741660008e+00 7.5324059116109998e+00
124 2 3.6497176818080002e+00 7.6201358460249997e+00 5.8187859761990000e+00
125 2 1.4369632847460001e+00 5.6253086379950001e-01 6.8333153208940001e+00
126 2 2.9458887833990000e+00 1.8575085731400001e+00 5.5555853331240002e+00
127 2 1.0354023366920000e+01 1.6270611713520001e+01 5.9903223226230002e+00
128 2 1.1722340219860000e+01 1.5807351878710000e+01 4.1012051534329999e+00
129 2 1.3913182807229999e+01 6.1250308164530001e+00 6.1679447152420002e+00
130 2 1.2112785099370001e+01 4.6483303786099999e+00 5.6911785433809996e+00
131 2 6.6628830860720001e+00 7.5973964752269998e+00 1.2651636475069999e+01
132 2 4.4526732706049996e+00 7.9470124927350003e+00 1.2053832035870000e+01
133 2 2.6530457412589997e-01 1.2153787494079999e+01 2.8971956827990000e+00
134 2 6.5251870877450002e-01 1.3085152266650001e+01 7.6033005406349996e-01
135 2 1.4639859485990000e+01 1.7033730221860000e+00 8.4716177207550007e+00
136 2 1.4879104100610000e+01 3.7911043800650002e+00 7.5171093269530003e+00
137 2 1.5121474301410000e+01 1.3695395086190000e+01 9.6387947265909997e+00
138 2 1.1221300807460000e+00 1.4027464631519999e+01 8.9112993348439993e+00
139 2 3.5139645494209999e+00 1.2962339815749999e+01 3.6850702282199999e-01
140 2 3.5523759599510001e+00 1.4270636722100001e+01 2.2903607597110001e+00
141 2 4.1522575812579996e+00 4.6238279641069999e+00 4.2429589413950000e+00
142 2 4.5339780891689996e+00 4.3236161701010003e+00 6.5008263569720004e+00
143 2 3.5562586891510000e+00 1.3420556366990001e+01 1.1613396275120000e+01
144 2 5.3577569786200003e+00 1.4575706179130000e+01 1.0756382173430000e+01
145 2 7.2657068042589996e+00 8.4720161382669996e+00 1.5766474984369999e+01
146 2 9.4706317704920000e+00 8.6819974540219995e+00 3.8202332759640001e-01
147 2 7.7294327634739997e+00 9.2736932575779996e+00 3.2497570822999999e+00
148 2 8.1009800853260003e+00 1.0291640903999999e+01 5.3489392136750000e+00
149 2 1.2218913849349999e+00 8.2599506793780009e+00 3.7759856588620000e+00
150 2 -2.1547285730450000e-01 8.3367287487360002e+00 1.9369219996870000e+00
151 2 1.3272523391889999e+01 1.4362274269649999e+01 1.2539787850930001e+01
152 2 1.3899688522000000e+01 8.3895113839480007e-02 1.1306496366059999e+01
153 2 1.6017999107529999e+01 1.2344788967160000e+01 6.0828024448819997e+00
154 2 1.5171778262219999e+00 1.0684919817970000e+01 6.0184361701439997e+00
155 2 1.2235564865180001e+01 2.2947587613659999e+00 1.4088979023729999e+01
156 2 1.1077238112540000e+01 8.5817308801610004e-01 1.2688291521729999e+01
157 2 2.5170185116099999e+00 1.0125026581760000e+01 1.1203858792149999e+01
158 2 2.0328797961910001e+00 1.0723987934189999e+01 9.0011456566349999e+00
159 2 7.3538997740390002e+00 -1.7234662709459999e-02 7.4037496474270004e+00
160 2 5.1379597835049999e+00 7.6293487487010003e-01 7.6641318681480000e+00
161 2 6.8869562303420002e+00 1.3922118912840000e+01 1.3826826117200000e+00
162 2 7.3489554604110001e+00 1.1694199020139999e+01 8.3156216453639997e-01
163 2 1.0008483584790000e+01 1.1977148549800001e+01 7.1384077950040004e+00
164 2 8.7830608311250007e+00 1.3326893048740001e+01 8.6909052896020000e+00
165 2 5.4050560317560004e-01 4.9693300695860003e+00 3.2777208882900002e+00
166 2 2.2529193839290000e+00 5.4553403403100003e+00 1.7241819301920001e+00
167 2 5.6801091720530001e+00 1.4712134012640000e+01 4.2529915777639999e+00
168 2 6.0690939223839999e+00 1.2504424335890000e+01 4.8205267634920004e+00
169 2 1.5763930345089999e+01 8.0460840068920003e+00 9.5236206535010002e+00
170 2 1.4806962087040000e+01 8.9298148876249996e+00 7.5364468094100001e+00
171 2 7.4895563000270000e+00 4.5291329961329998e+00 2.6829439006759999e+00
172 2 8.8045610881789997e+00 6.4695631138140000e+00 2.5512991239159999e+00
173 2 9.1759794379509998e+00 1.2757619585770000e+01 1.4723717068650000e+01
174 2 1.0670130785760000e+01 1.3906049659460001e+01 1.3382804198260001e+01
175 2 6.2670398759039996e+00 1.2819841958360000e+01 1.4527649621089999e+01
176 2 6.9440987736649999e+00 1.1814327711050000e+01 1.2512729707629999e+01
177 2 1.1730269946849999e+01 7.2260791824939998e+00 2.1442007049880001e+00
178 2 1.2315739717230000e+01 9.4669984193910004e+00 2.0677559532349998e+00
179 2 5.3011692468189997e+00 6.1816325884080001e+00 2.2631876996120002e+00
180 2 4.9815918389849996e+00 6.3293542357760000e+00 1.6121844592290000e+01
181 2 1.6320255284430001e+01 4.9597888555790002e+00 1.0395721909550000e+01
182 2 2.1890331977019999e+00 5.9026147723150002e+00 9.6846782203040007e+00
183 2 1.3241708764809999e+01 1.2554731693040001e+01 1.2443195033800001e+00
184 2 1.3963243865160001e+01 1.3911561045599999e+01 1.5666613201450000e+01
185 2 4.7011701348750004e+00 1.0066436237810001e+01 3.7487739325459999e+00
186 2 3.1278908670690000e+00 1.0374143209390001e+01 2.0456222546870002e+00
187 2 1.3033076054480000e+01 3.9881548402379998e+00 1.0442145428560000e+01
188 2 1.3295512699280000e+01 5.8482053815940001e+00 9.1353714284269998e+00
189 2 1.1660718899020001e+01 7.6231235245619999e-01 8.9922574324479996e+00
190 2 1.1985660810890000e+01 1.4616825648140001e+01 9.0013848575110007e+00
191 2 9.3034402002239993e+00 1.1632310090400001e+01 1.0905484592830000e+01
192 2 9.4246573887149996e+00 9.9018050728060008e+00 1.2519899180159999e+01

Velocities

1 3.9878399692939998e-01 -1.4097854158609999e+00 1.2874384284960001e+00
2 -4.1580509177360003e+00 -5.0452473833139999e-01 -3.3853873608759999e+00
3 -8.0753631652170004e+00 6.1806893423930003e+00 -7.1584119976379998e+00
4 -1.1234667345910001e+00 -4.9221672814449997e+00 -6.1786251400570000e+00
5 5.2710165637779998e+00 -5.2118924916019997e+00 2.8082909067899999e+00
6 -4.1850489484939999e+00 7.0703677295100000e+00 7.9924737874950003e+00
7 6.7718677507049998e+00 4.9995334589290001e+00 6.6523729291200002e+00
8 -1.6090327358260001e-01 1.0194606756260001e+00 2.5034302310849998e+00
9 -5.8622980816680004e+00 8.0508386794060005e-01 4.5497391300740002e+00
10 -1.7091843494500001e+00 -3.5056996969959999e+00 1.3521719663189999e+00
11 6.9849968561800004e+00 5.4812121760240000e+00 8.3839307635089995e+00
12 -2.3897819179840001e+00 3.4325458929280002e+00 1.9852000071270000e+00
13 5.0097738366410001e+00 -3.6203405375409998e+00 -7.1402467013099997e+00
14 -4.7484947925879997e+00 -4.4008074478049997e+00 -5.1958748055279997e+00
15 -2.5156421780670000e+00 2.6686639425040002e+00 3.9901635316260000e+00
16 -5.0517398344710003e+00 7.5792385635829995e-01 2.2847691369250001e+00
17 -5.4340816955360003e+00 3.1524491517080002e+00 -1.0727351692780000e-01
18 8.3117681169330009e+00 -4.1227221462469998e+00 -1.5337093448329999e+00
19 -3.4623351689469999e+00 -2.1895159385800000e+00 3.1241952724260003e-01
20 3.3862855246530001e+00 2.7834720462250000e+00 5.1899202477579998e-01
21 -5.1560064438700000e+00 -2.2659154326039999e+00 8.4198354279140002e+00
22 3.7257594401260001e+00 -1.7188918861839999e+00 9.6592507994160004e-01
23 1.0837333035660000e+01 -3.0181776133309999e+00 -7.1386490158990004e+00
24 -5.5413196371830002e+00 -3.9399733036410001e+00 1.2360041781650000e+00
25 -2.7575511796569998e+00 6.0203389733690003e+00 -2.0250073332910001e-01
26 1.1626326588580000e+00 1.3770380616500000e+00 -4.2461855565060000e+00
27 -1.3034826645260000e+00 5.0883319776090001e+00 9.1757157383770005e-01
28 -3.9958748696680000e+00 4.7371984774379999e-01 -2.5062038114409999e+00
29 9.5522104556529996e-01 -2.1731143379300000e+00 4.9831942899169999e+00
30 3.5836211810099998e+00 7.6735536219849996e+00 1.5271704559879999e+00
31 5.4166679661649999e+00 2.9956149186059999e+00 9.0132595740750006e+00
32 -7.9658997290929996e+00 6.8775042919380001e+00 -5.9823994975810004e+00
33 3.7968478669789998e+00 2.5751475034369999e+00 -5.5619350583409997e+00
34 -2.4280869165940002e+00 1.3399347411639999e+00 -8.8843262987169993e+00
35 -5.9512613514250001e-01 -1.1137079123370000e+01 -2.7570625060329998e+00
36 7.8435218099089998e-01 3.9938208154459998e-01 4.6551391224029999e+00
37 -7.3723684206450002e-01 2.7868446852080000e+00 3.8408396649859999e+00
38 -9.5319303728979998e-01 4.7093009484969999e+00 -7.4181108788549999e-01
39 -9.8069136096610006e+00 9.3913796945869998e-01 -2.8458052349359999e+00
40 3.4850322828959999e+00 -4.3532514121960002e+00 6.2562367133450003e+00
41 3.8668840734669998e+00 7.6962674948940002e+00 -8.9279363081579994e+00
42 -1.8016885786870001e+00 -3.3451786393420000e+00 -2.7923076064990000e+00
43 5.7619098127570001e-01 -1.3110842671680001e+00 -7.0527839146039994e-02
44 -2.4671948818690002e+00 6.7843810713900004e+00 1.2407941812040000e+00
45 -3.9428410389159998e+00 -1.5244560574120001e+00 5.3633405186159999e+00
46 -1.1117158412549999e+01 5.4797611744900001e+00 1.7943378557980001e+00
47 6.1516585397129999e+00 -6.0676304580459997e+00 -8.4188228467220005e-01
48 -8.9174536689770001e+00 -4.8986167502580003e+00 9.7390386648180005e+00
49 -2.6280485150369999e+00 -2.4479151386589999e+00 -8.3357821507260006e+00
50 -8.0602294820109999e-01 1.0912998560940000e-01 -4.2464190598040004e+00
51 -7.3322916635709996e+00 3.3506120782500002e+00 -5.4967849756920000e+00
52 -5.5657646120750004e-01 -5.5525246837170004e+00 -9.7444019723160000e+00
53 1.3397967690860000e+00 -3.2534980437660002e+00 -6.0080894750350000e-01
54 1.2741487557480000e+00 -8.0281752569110001e+00 -4.3933323257300003e+00
55 1.1347268370379999e+00 1.6181388816080000e+00 -2.8173033605539999e-01
56 3.3302382158159999e-01 -8.0772979423489999e-01 2.5838045346510001e+00
57 1.0751241161779999e+01 -3.8440490726709999e+00 -2.3564357799700000e+00
58 -2.5023328855039999e+00 -9.4608290935530004e+00 -2.5745611535989998e+00
59 -3.4376712641000000e+00 -6.5623103094910000e+00 -1.0244282872460000e+00
60 -1.7379379839680000e+00 -2.1473791271699998e+00 4.8984642870649999e+00
61 9.3540298709299996e-01 -7.8445340003690001e-01 -9.0636122613280001e+00
62 1.8413334328640001e+00 -5.5850981829839998e+00 1.3049402268980000e-03
63 4.3189706375660002e+00 5.6164840042690001e+00 -1.7190853525030001e+00
64 -1.5579152299760000e+00 2.8748965667599999e+00 7.1705555376549999e+00
65 5.8000194958100000e+00 -4.0926429143509999e+00 1.1584164573510000e+01
66 1.7440401680199999e+00 4.9282118471069998e+00 -7.0012772442340001e+00
67 -3.6438919970669997e-01 -2.2962238322680002e+00 -3.6118387582459999e+00
68 3.6459194751760000e+00 -3.7521085646270000e+00 -2.3188456428460000e+00
69 6.0761045455809999e+00 8.0359444891349996e-01 -2.8813649195730000e+00
70 -1.2128781289060001e+01 3.0778705289640000e+00 -9.5028985506450003e-01
71 1.8973768756070000e+00 3.7965677645950002e-01 -1.2462460200809999e-01
72 1.2060817900970000e+00 -5.5021864375300000e-01 3.4945834061249998e+00
73 2.3233998952310002e+00 -2.3155558225799999e+00 3.9534978961730000e-01
74 5.9646485585670002e+00 2.5000972756739999e+00 6.0185284773019996e+00
75 4.7073379195029998e+00 -3.7405161428970000e+00 3.2481609594780001e+00
76 1.3777556972080001e+00 1.6099818843939999e+00 -1.7704591281230000e+00
77 4.3924486824160001e+00 -2.8549958230200001e-01 2.6685198654250000e+00
78 -1.1185325805590001e+00 3.0708072297980000e+00 3.8244235422510000e+00
79 4.0890873522420002e+00 6.2834124218340004e-01 8.1829934712209995e-01
80 -1.6222732946180001e+00 -9.1288390834749999e-01 6.3323111878719995e-01
81 2.6517136136969999e+00 -4.6671912136999998e+00 1.8516571275960001e+00
82 1.7337217735679999e+00 2.0915851122200002e+00 -4.6590470252680003e+00
83 -3.6100787700430002e+00 -2.6217187690669999e+00 -5.1356075364729996e+00
84 2.1279938736310000e+00 -3.2914217904340002e+00 -1.5443811388940001e+00
85 -9.0789493268690002e-01 -4.2032003638850002e-01 -5.1582932886149999e+00
86 1.9709643536300001e+00 -3.8315400318899999e+00 -2.5420121682780000e-01
87 -5.8161144459459999e+00 -7.6274316537380003e+00 2.4277993736929999e+00
88 -2.4592212598600001e+00 1.2350180967900000e+00 -1.3746803203039999e+00
89 -1.3963169161569999e+00 1.2240029374650001e+00 -5.5607101098730005e-01
90 -9.3084226057639996e-01 -3.2489453527580001e+00 -2.5260751119160001e+00
91 -1.9008775483860001e+00 -8.2452146737280003e+00 1.8027855939370001e+00
92 5.5217489178199998e-02 -2.0278900126380002e+00 1.7460719194270000e+00
93 5.6247474372089998e+00 -2.7225295942100001e+00 -8.7489323052420007e-02
94 4.7316765926690003e+00 -1.0541127709810000e-01 1.9897446023290000e+00
95 -2.1705035808740001e+00 -2.5678926102470001e+00 -4.9692186925290001e+00
96 1.5699914626070000e+00 -2.0361680124729999e+00 2.0317392892539998e+00
97 -9.2473615008709997e-01 -4.0587532448679999e+00 7.2445875287419996e+00
98 -4.3798420543440004e+00 -3.1787161459540001e+00 -4.6462735027580004e+00
99 -5.6031562808709996e+00 3.2151924777510001e+00 -3.2579532064649999e+00
100 5.0310216081199997e+00 -2.1655717360910001e+00 -2.8810314693320001e+00
101 -2.5326400973580001e+00 3.0828458262380001e+00 8.9977411519490005e+00
102 1.2655010227090000e+00 6.3429765257420003e+00 -2.2407455635410001e+00
103 -4.8137078074839996e+00 -3.1385564913369999e+00 -2.2312995726679999e-01
104 -3.3303104982970000e-01 2.0468036363350000e+00 3.2517531248710001e+00
105 -2.1025039348940000e+00 -3.8839588072500000e+00 2.0083700756399998e+00
106 -3.3465281068469999e+00 -2.1659237696589999e+00 6.8436662734080000e-01
107 -5.7818426259909996e+00 1.5573414423340000e+00 -1.6887991411429999e+00
108 -1.4160252775490001e+00 -2.3851875664110000e+00 1.8495093765880000e+00
109 1.8681005328720000e+00 2.4917909685930000e+00 4.2940316794670003e-01
110 2.4641401499939999e+00 -2.0707291746709999e+00 6.7539261942020001e+00
111 -4.4615526284730000e+00 2.9125912397409999e+00 -1.8024664204009999e+00
112 -1.6252327043110000e+00 3.5681052463110001e+00 -3.4415792230269999e+00
113 2.6243738486160000e+00 -5.7527615699180004e+00 6.5261549474919994e-02
114 -2.2249501045420002e+00 -5.2361020494800004e+00 5.4224937654929999e+00
115 -3.4177691539550001e+00 -2.4925999560980001e+00 3.4674647784090000e+00
116 7.3731874666590000e+00 4.1425637151060002e+00 5.7203878996370001e+00
117 3.0170220257180000e+00 2.8754722120839999e+00 4.3925918978040004e+00
118 -9.6439089124430000e-01 -6.7969714856690002e+00 -4.4954870132459996e+00
119 1.0272378162689999e+00 4.1259380241330001e+00 7.7735925382740003e+00
120 4.8767375265529997e+00 -7.5532725556419997e+00 -8.7620248733840000e-01
121 -1.1354178878190000e+00 -4.7099458552530002e+00 4.6250908465369998e+00
122 1.7064897456040000e+00 3.5124889535869999e+00 -1.9049826735680000e+00
123 -4.1006543014319998e+00 6.9389118958509993e-02 6.9158331034470004e+00
124 -4.8764200559999997e+00 5.4555988927510004e+00 -8.2288852318989997e-02
125 -2.4798529302510000e-01 -7.5147916225419999e+00 -3.1818335274290002e+00
126 -2.5567363361409998e+00 5.5845830691389997e+00 2.1372805229799998e+00
127 2.1427277950470001e+00 5.4582441884659998e+00 -5.9325247898600004e+00
128 -2.1556039797339999e+00 5.4531148441730002e+00 -3.8757216948489998e-01
129 6.1857159375870001e+00 6.5815107395189998e-01 4.7093848347079996e+00
130 6.9383977311049998e+00 -1.6629388344100000e+00 -5.6089643113670000e+00
131 -1.7255693479159999e+00 5.0286333303659996e+00 -5.1768124808560001e-01
132 -2.5512295093730000e+00 2.3165371717930001e+00 1.7622890908669999e+00
133 -4.7613675047289999e-01 1.5073182216550001e+00 -3.1155778489600001e+00
134 -8.0050166235700004e+00 -2.0833114240900001e+00 -4.0715197416680002e+00
135 1.5673600552219999e+00 -1.3310675372080001e+00 -2.7173765076210001e+00
136 -2.7976804478889998e+00 2.9975331091800000e-01 -2.2685990983209998e+00
137 1.3616100836139999e+00 5.7889377481690003e+00 3.6176012432480000e+00
138 -2.0397085810490001e+00 -1.5537050928400000e+00 2.8389160283849999e+00
139 5.8317661500089999e+00 1.6868100819000000e+00 -4.2232783498320003e+00
140 -4.8182778326999998e-01 -5.1902399754030002e+00 -4.7848608552409999e+00
141 3.2132597238630001e+00 -3.5301561783760000e+00 1.6041545613379999e+00
142 6.7816749030809997e-01 -2.0235858805050002e+00 2.8021844845630000e+00
143 -1.0553755318180000e+00 -1.8599997563040001e+00 -1.6390618222340001e+00
144 1.1534266575620000e+00 1.6121060792610000e+00 1.1886051028989999e+00
145 2.7828147945480000e+00 -4.4160139078249996e+00 2.4632507289020000e+00
146 -4.3538359308020003e-01 4.5193379266450000e+00 9.8337744796079996e+00
147 -3.3172137877119998e+00 4.6038409922710004e+00 -1.0586384907310000e+00
148 -6.6801793670049996e+00 -4.4727122615039999e-01 -4.3470522020209996e+00
149 4.0919461183319999e-01 4.6018117371300002e+00 -5.8062347025259999e+00
150 -6.9481880027180001e+00 3.7572869269570002e+00 2.1705634040840001e+00
151 -5.1117474451930001e-01 7.2302397306400001e-01 1.1030713177980001e+00
152 -1.5272551380320000e-02 -4.5630334723160004e+00 6.8477981178059997e+00
153 4.6807483942120003e+00 -7.7500826184690004e+00 -8.9231476256669993e+00
154 2.8191533714610002e+00 2.2153054159530000e-01 2.7710213897200000e+00
155 1.5066604293920001e+00 -5.8914797769770004e+00 1.9485934438060000e+00
156 -8.6773958019979996e-04 1.4939481156759999e+00 5.4703817338100000e+00
157 7.2152827331670002e+00 1.6927805519360000e+00 -4.9864802244310003e+00
158 4.1975311381629998e+00 7.1202317142189997e-01 -5.5548591286709996e+00
159 -6.4206176107299995e-01 1.8362189074599999e+00 3.8259455786609999e+00
160 4.5998005494949998e+00 -2.5764710355929998e-01 -9.6968237642950008e+00
161 -2.7074226363789999e+00 -2.8497379073480000e+00 -6.8234348583679996e+00
162 -2.5600169978460001e+00 2.4462950778199999e+00 -1.5857195575460001e-01
163 2.4655574665050000e+00 6.2380551819679999e+00 1.9598650214919999e+00
164 1.5175497228170001e+00 6.3820509272049997e-01 -4.1184388709780001e-01
165 -4.7207631528869998e+00 2.2442606053429999e+00 7.4274142371959995e-01
166 3.0135238271809999e+00 -6.4741404129660003e+00 -1.3494426068000001e+00
167 4.2473060139100003e+00 -5.4315657389289995e-01 -5.7125664305789998e+00
168 3.9367011132250002e-01 4.5999171726789996e+00 2.1849665799559999e+00
169 2.3004748390050000e+00 8.6873230392870004e-01 -2.9336858693090000e+00
170 4.1371743495480002e+00 -1.0009622543970000e-01 -1.8682765834899999e+00
171 -1.1334645731349999e+00 6.4656314181440004e+00 6.8550221631229993e-02
172 -3.3730662326630001e+00 -1.0360853389360001e+01 2.8814038294689999e+00
173 -2.1759544712299999e+00 1.3843208991300000e+00 -2.0367746970630001e+00
174 3.6028787331249998e+00 7.7240187118419996e+00 1.7685286751139999e+00
175 -2.3583808583539998e+00 2.9854737695710001e+00 -3.0408895600250001e+00
176 -2.9741301312780002e+00 3.2910659563550002e+00 7.8171793894910002e-01
177 -1.2264000523690000e+00 2.4123943748409999e+00 -2.2009080663999998e+00
178 6.2645055249350001e+00 7.1735182279269996e+00 -8.9630747676450007e+00
179 3.4394827759019999e+00 2.3573247459150002e+00 -5.4192416206460003e-01
180 2.0944564261730001e+00 -2.3739442947020000e+00 5.8545045961240003e+00
181 1.2643334284290000e+00 -5.0511187895900000e-01 5.6435552499339998e+00
182 3.6381232489130002e+00 5.4486326879750004e+00 -2.4384816235189999e+00
183 1.8452681873110000e+00 -4.3029536618339996e+00 -9.8717969038969999e-01
184 -4.7188039766189999e-01 2.0008353896769999e+00 3.9773869917619997e-01
185 2.0517215096219998e+00 -2.5977922866059999e+00 3.6935552633539999e+00
186 -2.0329091856170001e+00 -2.2595930746550001e+00 -7.6676721062129998e+00
187 -6.8533666738760002e-01 -2.5977445090150000e-02 3.6541889276460000e+00
188 1.1641316435860001e+00 -3.9083100639230001e-01 2.6229814044889999e+00
189 -5.1513396805709997e+00 4.4891256597910001e+00 6.6258975241350004e+00
190 2.5325976827500001e+00 9.3845500769480008e+00 4.1419511272539999e+00
191 -4.9160143800920002e+00 4.6983466857399998e+00 -2.7911595362420001e+00
192 -3.2162555763039999e+00 3.1863237947149998e+00 -1.9355415198629999e+00
