LAMMPS data file extracted from NVT dump, timestep 1440000, units metal

192 atoms
2 atom types

0.0000000000000000e+00 1.6195563468200000e+01 xlo xhi
0.0000000000000000e+00 1.6195563468200000e+01 ylo yhi
0.0000000000000000e+00 1.6195563468200000e+01 zlo zhi

Masses

1 12.00000000
2 16.00000000

Atoms # atomic

1 1 4.1108511184449997e-02 8.0064895848469995e+00 1.2482907332610001e+01
2 1 1.2202156272670001e+01 9.1660007280470002e-01 1.3273106225550000e+01
3 1 1.3479053455690000e+01 9.3645087394880004e+00 1.1571472456110000e+01
4 1 8.5292040719119999e+00 1.3286699655730001e+01 4.7729515943570000e+00
5 1 1.1416421326140000e+01 5.1248086693990000e+00 1.2544971304900001e+01
6 1 1.0060450252930000e+01 3.8075657412719999e-01 9.2764708332449999e+00
7 1 1.3982474173649999e+01 6.6898371562870000e+00 7.0977412878050004e+00
8 1 1.2126244433360000e+01 9.9966197481990005e+00 6.0595547099209996e+00
9 1 1.0378459830320001e+01 1.7143736221129999e+00 5.0154802699080001e+00
10 1 8.0845308800530002e+00 3.7010415886449999e+00 1.0650863343979999e+01
11 1 5.6175942392340001e+00 6.1929612065099997e+00 9.2828116343700007e+00
12 1 1.0059822824610000e+01 9.1847068507969993e+00 1.4470706633660001e+01
13 1 1.5437995242650000e+01 1.3158090597990000e+01 1.5292811428669999e+01
14 1 6.6992944069719995e-01 6.2452301796549996e+00 8.9104590930299992e+00
15 1 1.4422167074970000e+01 9.0764403265400002e+00 3.3030312004000000e+00
16 1 5.1886623766669997e+00 9.5582694547270002e+00 6.3436496334259997e+00
17 1 1.6104229580999998e+01 4.0473603248509997e+00 5.5218864289980001e+00
18 1 1.0169844635350000e+01 7.7270934506150004e+00 1.8451672436369999e+00
19 1 1.1237260400869999e+00 1.4474036094110000e+01 8.8925393994299995e+00
20 1 2.1201782034200001e+00 7.9286942351630003e+00 1.7723214864400001e-02
21 1 1.1518745090080000e-01 5.1260223697739997e+00 1.4152083236339999e+01
22 1 6.6056362057799998e+00 1.0259351022870000e+00 7.0474161515539997e+00
23 1 8.7284992478410004e+00 1.0517462630610000e+01 7.1629652223280003e+00
24 1 1.4455551728380000e+01 2.1022315415400001e+00 1.0218192625930000e+01
25 1 3.9643285724199999e+00 5.3210370168030003e+00 1.6684847889520000e+00
26 1 1.0730484047530000e+01 1.1504075029070000e+01 2.3941496563269999e+00
27 1 2.4472868900210001e+00 9.5811434990540008e+00 3.4785009044640001e+00
28 1 1.4173568057060001e+01 1.4222796533180000e+01 2.5180174541380000e+00
29 1 4.7845490669290003e+00 1.2523386239340001e-01 1.1948126733310000e+01
30 1 1.5222539466580001e+01 1.4378820955769999e+01 1.2141074933060001e+01
31 1 1.5576876393430000e+01 1.1885298025040001e+01 5.5759617455410000e+00
32 1 3.0895188678520000e+00 1.4382369263730000e+01 6.0287235840050002e+00
33 1 1.4780333403840000e+01 4.2513870087490002e-01 6.8115433320439998e+00
34 1 9.3023139307659992e+00 7.5861329183830000e+00 1.0237092459730000e+01
35 1 3.5236823510809998e+00 1.2670213051639999e+01 9.3569828826570001e-01
36 1 5.0590594958540001e+00 1.4834084469100000e+00 4.0126533331839997e+00
37 1 1.2195737817219999e+01 1.4389185449339999e+01 5.9681349296430000e+00
38 1 9.2570179114580000e+00 6.1317554193749997e+00 6.0381223786340001e+00
39 1 1.0915445543830000e+01 1.2947814454420000e+01 1.4515542735410000e+01
40 1 5.9890380265119996e+00 1.3031471749880000e+01 1.2517744103840000e+01
41 1 4.4905857002799996e+00 1.0364941941480000e+01 1.3679006227080000e+01
42 1 1.9191688204380000e+00 1.0796975721180001e+01 1.0230320497779999e+01
43 1 1.2589498616240000e+01 3.9181740721999998e+00 1.5974471085030000e+01
44 1 1.2203961696109999e+01 4.3018323238690002e+00 2.9147954832840002e+00
45 1 5.3449991085499997e+00 6.8949774118839997e+00 1.4023673809790001e+01
46 1 8.2820187956449995e+00 3.6270019172389998e+00 2.2260628961890001e+00
47 1 2.2848485837550001e+00 1.6910976709940000e+00 2.1551900994250001e-01
48 1 9.4359079730219992e+00 1.6099127010029999e+01 1.3471147766220000e+00
49 1 5.1445322383619996e-01 8.5894932501989996e-01 4.2045964860809999e+00
50 1 1.4419499034050000e+01 1.2743388521050001e+01 9.0504240952129997e+00
51 1 1.9919212026019999e+00 1.3363572216340000e+01 1.3633688790400001e+01
52 1 1.6230548637150001e+01 4.6336614772890004e+00 1.5733634783199999e+00
53 1 6.1039981410010000e+00 6.2805940221109999e+00 4.8096697684149996e+00
54 1 2.7054093848790002e+00 4.2991349310580000e+00 1.1075940784109999e+01
55 1 7.7238334760729996e+00 1.1998575627250000e+01 1.7761815991200000e-01
56 1 7.8468073750230003e+00 3.5636054220559998e+00 1.4654683617410001e+01
57 1 5.4138131380300001e+00 4.6154849085850003e-01 5.0972092694519999e-01
58 1 1.3910681454280001e+01 8.8111689191420002e+00 1.5556790839780000e+01
59 1 8.6988814807489998e+00 1.5917393325620001e+01 1.3316573941540000e+01
60 1 1.1426161728180000e+01 5.2787439139429999e+00 8.7700664410350004e+00
61 1 6.2867465004540000e+00 9.9992290522750000e+00 1.0911840456900000e+01
62 1 9.9963568484280003e+00 1.1695060161200001e+01 1.0205895997450000e+01
63 1 2.4122865585910001e+00 2.8845992237250000e+00 7.8354844005490003e+00
64 1 5.6276532632749996e+00 1.3340198123210000e+01 8.4064071851249995e+00
65 2 5.8566923800640003e-01 8.8931942771900001e+00 1.3000846786189999e+01
66 2 1.5771348885300000e+01 7.0541500181040000e+00 1.2003891478990001e+01
67 2 1.1698092067410000e+01 1.6151118498830002e+01 1.3683089151700001e+01
68 2 1.2787225775750001e+01 1.7851329661169999e+00 1.2781377024410000e+01
69 2 1.3389677431630000e+01 9.2160779858969999e+00 1.0387791734700000e+01
70 2 1.3522750106569999e+01 9.4995058269969999e+00 1.2734035456339999e+01
71 2 9.5575248515270008e+00 1.3394200735660000e+01 4.1889770913189999e+00
72 2 7.5352088235680004e+00 1.3161789283130000e+01 5.4106374969909998e+00
73 2 1.0703730373759999e+01 4.3317533466980001e+00 1.3048430215110001e+01
74 2 1.2038157652910000e+01 6.0466166582899996e+00 1.2128186675880000e+01
75 2 1.0880882634000001e+01 5.8140636064050000e-01 1.0017459958030001e+01
76 2 9.1446986280339999e+00 3.0731525257300002e-01 8.5228386260329998e+00
77 2 1.4439477759860001e+01 7.7445026148900000e+00 7.4404156058720003e+00
78 2 1.3500928872110000e+01 5.6950050161419998e+00 6.8004953809669999e+00
79 2 1.2538980774310000e+01 1.1078778120100001e+01 6.3606679113039997e+00
80 2 1.1727833983009999e+01 8.8942631633179996e+00 5.8753673818019996e+00
81 2 1.0417037832580000e+01 1.1939753402290001e+00 3.9414594699040002e+00
82 2 1.0343953589000000e+01 2.2003403671930002e+00 6.0783318513409998e+00
83 2 7.3594125207529997e+00 4.3146203974009998e+00 1.1351523553730001e+01
84 2 8.8847852979479995e+00 3.0295458299989999e+00 1.0147170057580000e+01
85 2 5.1120262492400004e+00 6.8098518505649999e+00 1.0175186396120001e+01
86 2 6.2594879319199999e+00 5.4842107482199998e+00 8.5788295392920002e+00
87 2 9.9790437636939995e+00 8.6693496116860000e+00 1.3413638098210001e+01
88 2 1.0085486803320000e+01 9.7024581665300005e+00 1.5507842009870000e+01
89 2 1.5547192114160000e+01 1.4330191212010000e+01 1.5096162377530000e+01
90 2 1.5245813578550001e+01 1.2005986638360000e+01 1.5357765110750000e+01
91 2 1.4724173328100001e+00 7.1217550450929998e+00 8.9060212453569996e+00
92 2 1.5973154631510001e+01 5.4671529751090002e+00 9.0009796104519992e+00
93 2 1.5018103119579999e+01 8.0896290914219993e+00 3.5583842830269998e+00
94 2 1.3724397715109999e+01 9.9988287870750003e+00 2.9911102953900000e+00
95 2 6.0059140496610004e+00 9.3772160458540004e+00 7.1596472854849997e+00
96 2 4.4238784751650000e+00 9.7898833220070003e+00 5.4750337694560001e+00
97 2 9.7432343887649997e-01 4.4438689214159997e+00 5.7614367187860003e+00
98 2 1.5028899571029999e+01 3.6652688521500001e+00 5.3201590911909999e+00
99 2 1.1124934048860000e+01 8.3100628507310006e+00 2.1867857677529998e+00
100 2 9.2402436056500008e+00 7.0577951943209998e+00 1.5934268193640000e+00
101 2 1.3759562591179999e+00 1.3497266275590000e+01 8.2696600559360007e+00
102 2 8.3472800703049999e-01 1.5272141040110000e+01 9.7006436062850003e+00
103 2 3.0016685876350002e+00 8.4614901760359995e+00 1.5625498912159999e+01
104 2 1.2567146947290000e+00 7.5814202645959998e+00 7.3530971867929995e-01
105 2 1.5707029438110000e+01 4.1812202468899997e+00 1.3813440487299999e+01
106 2 7.5683301791000002e-01 6.0485213489460001e+00 1.4516276615500001e+01
107 2 6.4454384869329999e+00 1.8341734865540000e+00 7.8600311405700003e+00
108 2 6.7883776718859998e+00 2.4539204790450000e-01 6.1667150610289996e+00
109 2 9.3301112063110008e+00 1.0285722084610001e+01 6.2095716690770004e+00
110 2 8.1356890889439999e+00 1.0833988930100000e+01 8.1178074047289996e+00
111 2 1.4757399014610000e+01 3.1971957500960002e+00 1.0504235774540000e+01
112 2 1.4195122735600000e+01 9.8111187968750002e-01 9.8930961325650006e+00
113 2 3.5664611367340000e+00 6.3729333080219996e+00 1.9713369402150001e+00
114 2 4.3106494359290002e+00 4.2381597172980001e+00 1.2791014123700000e+00
115 2 9.8010995305139996e+00 1.0859067210490000e+01 2.6776749893220000e+00
116 2 1.1654026173700000e+01 1.2163465249190001e+01 2.0776016998880000e+00
117 2 2.1206711489460002e+00 8.6355244890199998e+00 4.1089758878160003e+00
118 2 2.7374502993620000e+00 1.0452101690810000e+01 2.7565938062150002e+00
119 2 1.5147426213470000e+01 1.3709813891610001e+01 2.8641585481120000e+00
120 2 1.3215472175970000e+01 1.4778125338000001e+01 2.0836843939760001e+00
121 2 5.7777350993269998e+00 6.5692783121069998e-01 1.2354677212580000e+01
122 2 3.8657772776549999e+00 1.5786749092599999e+01 1.1424963275950001e+01
123 2 1.5448179041620000e+01 1.3264263537300000e+01 1.1842476776770001e+01
124 2 1.4969289808310000e+01 1.5492393124550000e+01 1.2324789295760000e+01
125 2 1.5314284321290000e-01 1.1072200137330000e+01 5.2247257146689998e+00
126 2 1.4856015022510000e+01 1.2700512647860000e+01 5.9129898800139999e+00
127 2 3.0296149265210000e+00 1.5168389776440000e+01 6.9081650323349999e+00
128 2 3.1398824249550001e+00 1.3736335683009999e+01 5.0389365123529997e+00
129 2 1.5587748964679999e+01 1.5769287742470000e+01 6.8623631590149996e+00
130 2 1.3931642680520000e+01 1.2178350258360000e+00 6.7655539708859997e+00
131 2 9.8815452265990000e+00 8.5374942806309999e+00 9.9669571042529999e+00
132 2 8.7436723250380002e+00 6.5936458032819996e+00 1.0503950338259999e+01
133 2 4.6372028712019997e+00 1.2621207822190000e+01 1.2631876176100001e+00
134 2 2.4071026553060002e+00 1.2879365359760000e+01 7.3328153432989995e-01
135 2 5.6556195804389997e+00 2.4414405560889998e+00 4.2699932028249998e+00
136 2 4.4843698885869996e+00 4.9798300639300003e-01 3.6605424250940000e+00
137 2 1.2705869447980000e+01 1.5013113486550001e+01 5.1197310754599998e+00
138 2 1.1544585431230001e+01 1.3917640296049999e+01 6.8359110925230002e+00
139 2 8.9119532200770006e+00 6.9730809330680001e+00 6.7885999214890003e+00
140 2 9.5255179562880006e+00 5.2615169097449996e+00 5.2697324260710001e+00
141 2 1.0476569539710001e+01 1.2312908313780000e+01 1.3614801446340000e+01
142 2 1.1359541178770000e+01 1.3652250632499999e+01 1.5392423979740000e+01
143 2 7.1101292451439999e+00 1.2841139254390001e+01 1.2671820635080000e+01
144 2 4.8310043488450001e+00 1.3203412655339999e+01 1.2402319819080001e+01
145 2 5.1927484743479999e+00 1.0885329157290000e+01 1.4452384569940000e+01
146 2 3.7637771497490000e+00 9.9449822082720001e+00 1.2866031288429999e+01
147 2 2.0298875542719998e+00 9.8062472597900001e+00 9.6029856289310001e+00
148 2 1.8461031870900000e+00 1.1763822436700000e+01 1.0916126436230000e+01
149 2 1.3057067709049999e+01 4.9928658261940004e+00 1.5919367201829999e+01
150 2 1.2064964895830000e+01 2.8652926571249999e+00 1.5918856316819999e+01
151 2 1.1458012300989999e+01 5.0413744017889996e+00 2.4024928169250002e+00
152 2 1.2850740269690000e+01 3.5533919461490000e+00 3.5693287715689999e+00
153 2 5.9511978771549998e+00 7.8579877652950003e+00 1.4372440560199999e+01
154 2 4.7093562714389998e+00 5.9201258457710004e+00 1.3863431882970000e+01
155 2 7.5156435211460000e+00 4.5008090101539997e+00 2.2765006853049998e+00
156 2 9.1184347417890006e+00 2.7893497102299998e+00 2.1670255515779999e+00
157 2 2.2383998232479998e+00 1.6744775513340000e+00 1.4000496670160001e+00
158 2 2.3612332569760000e+00 1.6460438207260000e+00 1.5271520112659999e+01
159 2 1.0400921345700000e+01 1.8031532656530000e-01 7.2018536642889996e-01
160 2 8.5612485929489992e+00 1.5602793956739999e+01 1.9785669028170001e+00
161 2 1.6059993720760001e+01 3.2697429295039998e-01 3.3898910224810002e+00
162 2 1.1627214550730001e+00 1.3522231566370000e+00 5.0427174016849996e+00
163 2 1.4148842591370000e+01 1.3854749797269999e+01 8.7702741190090006e+00
164 2 1.4621969915659999e+01 1.1587662285180000e+01 9.2283985934680004e+00
165 2 1.8601041981240001e+00 1.2422908520169999e+01 1.4350361080960001e+01
166 2 2.0845412481980001e+00 1.4343246383800000e+01 1.3002830444690000e+01
167 2 6.1672282112629995e-01 4.1150510826810001e+00 6.7019732389039999e-01
168 2 1.5639331085309999e+01 5.0952848501080004e+00 2.4796648966569999e+00
169 2 6.0017141049870002e+00 7.4353500479590000e+00 4.5905238351030002e+00
170 2 6.1716977616620001e+00 5.1258864078239998e+00 5.0244978707460000e+00
171 2 1.7394696520090001e+00 4.8904430222290003e+00 1.1410695789989999e+01
172 2 3.6197265692970002e+00 3.6976523156540000e+00 1.0710647464670000e+01
173 2 7.1678809627230002e+00 1.1004941483720000e+01 2.6452508960269999e-01
174 2 8.2697089286470007e+00 1.3011042477869999e+01 1.6294377482840002e+01
175 2 7.3478248250079998e+00 4.6117693756250002e+00 1.4807151727910000e+01
176 2 8.4303248870690002e+00 2.5629628421309998e+00 1.4579664116589999e+01
177 2 6.2513917859879999e+00 1.2677131145739999e+00 7.2926747892679999e-01
178 2 4.6840691883570003e+00 1.5786785706960000e+01 2.6064466339100001e-01
179 2 1.4158095115200000e+01 7.7626203548890000e+00 1.5062950941570000e+01
180 2 1.3553304371750000e+01 9.8360864809400006e+00 1.6005433973990002e+01
181 2 8.4180674527879997e+00 1.5979440080890001e+01 1.4453299217080000e+01
182 2 9.0223735643649992e+00 1.5746963222020000e+01 1.2204626137829999e+01
183 2 1.1725177653899999e+01 4.2188736991309996e+00 9.1647268220430007e+00
184 2 1.1245090896840001e+01 6.4093497507189996e+00 8.4087574348400000e+00
185 2 7.1166546890589997e+00 9.4625971132310003e+00 1.1566555359900001e+01
186 2 5.4609757740729998e+00 1.0555420317930000e+01 1.0286016335970000e+01
187 2 8.9144422557029994e+00 1.1950721813460000e+01 1.0594993360069999e+01
188 2 1.1057338296379999e+01 1.1297113783189999e+01 9.8452239641170003e+00
189 2 1.5405994079330001e+00 2.8797609499819998e+00 8.6491600012030005e+00
190 2 3.2942767565470001e+00 2.9071330478820001e+00 7.0731611353960000e+00
191 2 4.5888445116499996e+00 1.2804110235820000e+01 8.2703698498320009e+00
192 2 6.5766836844269996e+00 1.4001796627059999e+01 8.5825355845350000e+00

Velocities

1 5.5904606996310002e-01 8.0655309641990005e+00 4.9903540328279998e+00
2 -4.5236420084760001e+00 1.4847530186710001e+00 1.9416403918970000e+00
3 -7.9005025055870002e+00 -1.1962282389929999e+00 4.8953307187639998e+00
4 3.7876277430250002e-02 -3.1173549903960001e+00 2.5294098279510002e-01
5 2.7075281596230001e+00 -6.2207607628179995e-01 3.3284787839019998e+00
6 3.1975575344989998e-01 1.4907680441390000e-01 3.9721907574820001e+00
7 -9.2465505584560004e-01 -4.7490271076550004e+00 -8.1900699822740002e+00
8 -1.4384546516300001e+00 -6.3483536959870002e-01 -7.0046443996310002e+00
9 2.5418013029540001e+00 -3.7149532277940001e+00 -1.2802488286250000e+00
10 -5.5118683555260004e+00 3.1228478296800000e+00 1.7005590923720000e+00
11 2.3571006247800002e+00 4.9018105688300002e+00 3.5735058661250001e+00
12 5.1094969940140000e+00 6.1005176292069996e-01 2.2182424471530000e+00
13 2.6724899898720000e+00 5.6860036440060002e-01 2.7752964727039999e+00
14 -3.1430006899350000e+00 -5.5149937147410002e+00 1.0667942389680001e+00
15 -4.5473945979439998e+00 3.5415808580219998e+00 -5.1088268827430001e+00
16 -4.3017620063380004e+00 1.5737808920709999e+00 3.0459805497389998e+00
17 4.6541538272759997e+00 1.9051117137310001e+00 -5.4986361371060000e-01
18 5.1858550584209997e+00 -7.5950038047369999e+00 -6.6669984662299999e+00
19 -4.1827001496970002e+00 4.5387538951720003e+00 5.2458323396760003e+00
20 -1.4481394065310000e+00 -1.8864329034020000e+00 -6.4712057496060005e-01
21 -1.3391467643470000e-02 4.6285676158509999e+00 2.0235705164720001e+00
22 -5.0920728085710000e-02 4.6946550458659999e+00 1.7447666158470001e+00
23 2.2229861561680000e+00 5.2729210904489996e+00 -1.5592250134860000e+00
24 -2.1877359712310001e+00 -4.9441032838799996e+00 -2.2477019346220000e+00
25 -4.0284408202839996e+00 3.2673285695220000e-01 1.0984525781800001e+00
26 -6.7010588213519995e-01 -6.4804111346040001e+00 -3.7536070345960000e+00
27 8.8790826744770008e+00 -4.6672571133920000e+00 -2.8141681157820000e+00
28 4.9481936114279996e+00 -7.7425138348800004e-01 -2.2040024071530002e+00
29 7.0441717752950002e+00 -1.0874471504460000e-01 -3.5149525723560000e+00
30 4.4295751536539996e+00 -3.5526638107389998e+00 4.4756579675700001e+00
31 -4.5277345689150001e+00 5.3742615392979998e+00 1.4566621917920000e+00
32 -6.5125205958610000e-01 4.5078531726520001e+00 -8.7225577002900001e-01
33 2.7339153872740001e+00 1.4118852622100000e+00 4.0843837565840002e-01
34 7.1036674988030004e+00 2.9664683869789998e+00 3.2858311768660000e+00
35 -6.6370123779169998e-01 -1.6266066840310001e+00 -7.2794872853059998e+00
36 5.4515587310560001e+00 -9.6048838871819999e+00 -4.0292569626160002e-01
37 4.6185788193589996e+00 -2.2423765156340001e+00 2.7018857871240001e+00
38 -4.2981955240819998e+00 -1.9576282134950000e+00 8.4775033587319992e+00
39 4.7297297154130002e-01 -9.3962964583790001e+00 -2.2090327261330001e+00
40 -3.0931855349739998e+00 5.4682987011130004e+00 7.1622951896140004e+00
41 1.5989637159229999e+00 1.2211779366540000e+01 4.1360374828889999e+00
42 -1.2544322686580001e+00 -5.9163558211089997e+00 1.4939267374619999e-01
43 7.1659621997959997e+00 2.4934478914449998e+00 -3.0630282807080000e-01
44 3.1876738350229998e+00 -4.9019129360399996e+00 1.3743335778479999e+00
45 3.0954305765110002e+00 3.0777530472660000e+00 -1.8270056472030001e+00
46 4.2028823930539998e+00 3.5373710380180001e+00 6.9235656787380000e+00
47 -4.7675410208129998e-01 -3.9608923448739999e+00 -1.7481746701120000e+00
48 7.3565027533279999e+00 -2.0453218659069998e+00 -1.8294994126569999e+00
49 8.8975728442809998e-01 2.1304367314160002e+00 6.7433585504369997e+00
50 -6.3835721630000002e+00 -1.3077637417920001e+00 -5.0585401535849996e+00
51 -2.2830470510479999e+00 3.2132533419380001e+00 3.5677867257460001e+00
52 3.6835172634759998e+00 3.1568467623220000e+00 5.9696162167470002e+00
53 -3.6672359252679998e+00 5.0263172049380000e-01 1.0908272677599999e+00
54 2.5008231255750002e+00 -1.1609075206920001e+00 1.7632604099480000e+00
55 -8.0886962347810005e+00 4.8248217173510000e+00 7.3748785758990003e+00
56 -4.3905266137340000e+00 3.4802821046019998e+00 -9.5071893570009998e+00
57 7.1485209959130003e-01 2.7140006429489998e+00 4.4199269356240001e-01
58 -4.2631618963719999e+00 7.8803179251740003e+00 2.4022826869260001e+00
59 -1.0030137354310000e+01 -8.9296930168879995e-01 3.7204056188040000e+00
60 -1.0855022973920001e+00 1.3670810565970000e-02 6.8305662933780003e+00
61 -2.6008497617669999e+00 -4.4133282600690000e+00 -1.9695790370470001e+00
62 6.7350760456770002e+00 -5.8745178451909996e-01 4.2848501933550001e+00
63 -1.2097762688439999e+00 -9.2395926351960007e+00 7.6100061160360000e-02
64 7.3346050373219995e-01 -1.5971000521880001e+00 3.0282674354710002e+00
65 5.9658443635419998e+00 -1.6998022719699999e+00 4.5015271570600000e+00
66 5.0752887840790004e+00 7.4260564707950003e+00 2.0455282707519999e+00
67 6.2924663807960002e+00 4.9853089852830001e-01 8.8179199634210004e-01
68 6.2361700063400001e+00 -2.5246347095540000e-01 -6.6575509446190004e+00
69 -8.9197459268010004e-01 5.3125396011459998e+00 1.0025059957419999e+00
70 6.1273826422430000e+00 2.0245341766360001e+00 9.3115326798770007e-02
71 7.4188842336409999e-01 -5.7616326616020004e+00 2.4191351473089999e+00
72 -4.5269430231600003e+00 2.8374830780910001e+00 -3.8487762723009999e+00
73 9.4279163589180004e-01 -6.1617542664410001e+00 5.3458103165809998e+00
74 1.5765468232830000e+00 -5.2818391272929999e+00 -1.4941378067419999e+00
75 4.9187676553370002e-01 2.2924159741080001e+00 5.1953839969480002e+00
76 6.0278224436950004e-03 -8.9969638884920000e-01 -5.5490581043180001e+00
77 -5.2494206701130004e+00 -1.4523769425160000e+00 8.5673793453119995e-01
78 2.9695120915130002e+00 -2.8946427844349998e+00 2.9445033045610001e+00
79 2.0198819891510000e+00 9.7272984540160001e-01 -3.0900668023629998e+00
80 -4.2432423599630003e+00 -2.8639731091459999e+00 3.1050050230649999e+00
81 -5.7788813122570000e+00 5.8182381936930003e+00 8.8837975354270005e-01
82 -1.5539442760069999e+00 -4.5336199146440004e+00 3.7308357132059999e-01
83 -2.6280908219910000e+00 -5.3823280776500004e+00 3.0022108182339999e+00
84 -3.7225836994839998e+00 9.1032739088010004e+00 3.0642382352410000e+00
85 1.7128848481600001e+00 4.4727681040300000e+00 -9.3424808179899999e-01
86 3.9928003628690001e+00 -1.7737054140930000e+00 -6.9307434059729998e+00
87 4.3553611272300001e+00 5.9266847857839998e-02 4.8562867935060003e+00
88 3.7399980204140002e+00 7.8737227896799999e-01 3.2349235950850000e-02
89 1.7874070527990000e+00 6.5221996765670003e+00 -1.6533140363629999e+00
90 -6.8969949812399998e+00 -2.0582802811160001e+00 -1.9229659514999999e+00
91 1.9673431094060001e+00 1.6561615615420000e+00 2.5556556805369999e+00
92 2.2329453463430000e+00 1.0765101165860000e+00 -2.6690250869690000e+00
93 -2.5487169933390001e+00 1.2266048832779999e-01 3.2070925905940002e+00
94 7.8944328261020003e-01 -3.9990892132639999e+00 3.5342762424190002e+00
95 1.7054004941510001e-01 -4.5958130182270001e+00 -7.2683774279610003e-01
96 -1.9846033666390001e-01 -1.7457193613509999e-02 -1.1084064742799999e+00
97 6.2888047901740005e-02 -3.9096186763760001e+00 -1.0312900213740001e+01
98 -1.5231601307280001e+00 -2.4359380204750000e-01 -2.6748913752850001e+00
99 -1.0269922476750000e+00 -1.5408326357300000e+00 -3.3556313165049998e+00
100 5.6643786849189999e+00 -7.8873209174349999e+00 -3.5869993495410002e+00
101 -4.1729757564150000e-01 -4.4037461118219996e+00 1.0164125517160001e+00
102 -3.2309227773679998e+00 -2.0199877018989998e+00 2.8044516046600001e+00
103 -2.6195856418310001e-02 3.9188896903820001e+00 -9.3541709126799999e-01
104 2.9798350488110001e+00 4.4207679795340002e+00 8.2787119614460003e-01
105 8.7597967336979998e+00 -7.9732855815019998e-01 4.1845049715220002e+00
106 -2.1569316863479999e+00 -5.7379409103320000e+00 2.2341093771309999e+00
107 -1.2608736805330001e-01 -4.0799114207429996e+00 1.7243953508990000e+00
108 -3.0940210592109998e+00 3.1982309915360001e+00 7.4186588270950002e+00
109 2.2561432284120002e+00 2.1602671933169999e+00 4.8304480765969998e-01
110 -7.1121503267200004e-01 4.1417123323679998e+00 -1.4547598627450000e+00
111 -9.5372539250509991e+00 1.5914802112280000e+00 1.9882279359270001e+00
112 -5.4827587355500000e+00 -6.2435058537249999e+00 -5.5593033105289997e+00
113 1.1790260444800000e+00 4.2312908093730002e+00 -3.3596786255200000e+00
114 -3.3923264867110001e+00 -4.6601848823590002e+00 -2.9008062984129999e+00
115 -1.1067559405640001e+01 1.2294904331500001e+00 -3.3196351340239998e+00
116 -2.8580361599559998e+00 5.1911990832750003e+00 -2.2048039640489998e+00
117 4.3360382984739996e+00 -6.2205783997740003e+00 2.8127345187350001e+00
118 2.2719482942339999e+00 4.1670167536809997e+00 -7.0446741250170000e+00
119 -1.4996580341760000e+00 -1.0258828742280000e+00 7.2197924886439999e+00
120 -1.2671862911720000e-01 -2.1501259402300001e+00 3.6863723487670002e+00
121 3.9415863876280000e+00 1.7993533308880001e+00 -1.8234123027539999e+00
122 -4.2936066045639998e-01 -5.9257684881090000e+00 -3.2914940255920002e+00
123 2.1688833191180001e+00 4.9538456204259997e+00 -1.8516051716290001e+00
124 3.9943227949220002e+00 4.5160898832980001e+00 -5.0899886231989999e+00
125 7.0342408673190002e+00 1.1748039214840000e+01 2.7328577157520000e+00
126 -1.4121686561930000e+00 -3.7577808254159999e+00 -5.1128583697260002e+00
127 2.6111187864559998e-01 3.2106381991720001e+00 1.2428250776870000e+00
128 -2.3519716443499998e+00 8.4314804477680005e-01 2.8236974221510001e+00
129 -6.0777446446959997e+00 1.8274997983560000e+00 6.5049688656600002e-01
130 5.9544657179979997e-02 -1.3870094187690001e+00 5.0508764585049999e+00
131 1.1659035974390000e+00 -4.4215000479609996e+00 3.8466097779130002e+00
132 -3.9771483517260000e+00 1.0354955577670000e+00 -9.0773645821989994e+00
133 2.1138121934770000e+00 -2.1882461362619998e+00 7.8966569414480003e-01
134 -1.4681604022210000e+00 1.5938404304989999e+00 -2.8901589230039999e+00
135 -4.3973390966650000e-01 1.1548642720809999e+01 -3.1327206836060002e+00
136 -3.6864572266050000e+00 -3.3341927632430002e+00 1.7034263211820000e+00
137 -5.2393769393150000e+00 -1.7571753905270000e+00 -3.8263943686630002e+00
138 -8.0357074767219991e+00 -3.9815345424089998e+00 -5.1161046570590001e+00
139 -3.8579866524369999e+00 3.1565766814099998e+00 -1.5013554495699999e+00
140 -2.9970204533870000e+00 3.7158715944290002e+00 -3.2769132063340001e+00
141 -3.8868125568970000e+00 3.6411403812450001e+00 -7.1804976900069994e-01
142 -4.0167102050420000e-01 9.6809099002569994e+00 3.6549240275499999e+00
143 2.2187967999530001e+00 4.9532382991009999e-01 -3.3975315524280001e+00
144 6.8196714228809996e-01 -7.0381570136610003e+00 -1.0466657214549999e+00
145 -1.3941410712440001e+00 2.4194999227929999e+00 2.2879508950259999e+00
146 -3.4960568161030001e+00 -3.3784662355220001e+00 5.0774989665319996e+00
147 4.8933763518450002e+00 3.3931332008399999e+00 6.5974412827859998e+00
148 1.2199650343899999e+00 4.3728133330840002e+00 -2.8701446919349999e-01
149 -3.2369370871170000e+00 5.3339061088889999e+00 -5.9402691157470000e-01
150 -9.7743273857890001e-01 7.9723549930369997e-01 -8.3093131751680005e+00
151 3.2357871042640002e-01 8.8317789761639998e-01 1.4037156337329999e+00
152 -5.5589070781929997e-02 5.2934853097579997e-02 -7.5052013870129997e-01
153 3.5132168699960000e+00 -2.3819977300049999e-01 -2.1267987570089999e+00
154 3.5089927063239998e+00 -3.7641913089690000e+00 1.1623572449730000e-02
155 -9.6743895709119998e-01 -1.3918484615740001e+01 -2.6359860367420000e+00
156 -2.5811656748980001e+00 8.8715324189160005e-01 2.0643472710299999e+00
157 2.7491479669759999e+00 -3.3193119916199998e+00 -3.2749001970439999e+00
158 -2.5245755921680000e+00 5.6050475422610004e+00 4.2074714367930000e+00
159 1.2995282941260000e-01 -1.0226229334150001e+00 -2.1689509238659999e+00
160 -2.9565510563999999e+00 5.2353461077189998e+00 4.8010052618470000e+00
161 -7.1539751042189996e+00 -4.6067762545540001e+00 -4.5027831183920002e+00
162 -2.8586190632189998e+00 3.6416508934129999e+00 -3.1504090698859999e+00
163 1.3232975389460000e+00 -4.6300397857920004e+00 -3.1055184014310000e+00
164 -1.7186101671830001e+00 3.1132168197030001e+00 -2.6288704526930000e+00
165 -2.0575247888039998e+00 -4.4207014347770002e-01 3.1550276021140000e+00
166 -3.1310421944439999e+00 2.9876245356030000e+00 -2.3343307162880000e+00
167 8.1098047348859996e+00 -8.7113966184809999e-01 -5.4113248273319998e+00
168 5.7154404479969996e+00 -5.1720317862199998e+00 -5.0774187233820003e+00
169 1.0749715497060000e+01 4.0793548643869998e-01 4.2057367220639996e+00
170 -1.3899746366670001e+00 -3.5573513128530001e+00 -2.3351986555669999e+00
171 -7.3456405645640004e+00 3.5806327415590000e-01 -2.7161860421110000e+00
172 -2.8413922591260001e+00 -2.6160268836610001e+00 7.5104834134929999e-01
173 -7.4879814881899998e-01 -5.1275684615469996e-01 -8.0457862258890001e-01
174 3.8318756446869999e+00 -1.5950118708770000e+00 8.6883790737769999e+00
175 1.7021156603600001e+00 -1.0259395972570000e+00 -4.3845611144199999e-02
176 4.4981817419610000e+00 1.4079419423290001e+00 -2.1608209300720000e+00
177 2.7087664651910002e+00 -5.2844137675990002e+00 1.5036408257250000e+00
178 2.4778394927010000e-01 8.4561439339040001e-01 -3.3729680262259998e+00
179 -2.1687963009270002e+00 -5.8626934336899996e+00 3.3920523138799998e+00
180 9.7819727188890004e-01 3.6672441718990001e+00 2.5251156943219999e+00
181 5.2241693595959999e+00 -1.9641249681140001e+00 -9.0746589072759998e-01
182 2.2138642551330001e+00 -9.3591717235719996e-01 -9.2802341182989991e+00
183 -4.5630506889179996e+00 -2.5768631447630002e+00 -1.2465716082589999e+00
184 -4.2158942176679997e+00 1.8771261601050000e+00 -1.7728046957879999e+00
185 -3.7972383724510000e-01 -1.7374062008069999e+00 1.3642250414029999e+00
186 -2.3479508390100001e-01 3.3599909226090001e+00 2.8227530642479999e+00
187 1.9220332864830001e+00 -1.1683786491070001e+00 -1.8396482650129999e+00
188 9.5606456744339996e-01 2.7876064285159998e+00 4.6293509504349997e+00
189 -7.4552281522940000e-01 -1.5360707888220000e+00 -4.2507868857139997e+00
190 -3.4953213762309998e-01 2.3804575211119999e-01 3.7520840219560001e+00
191 1.6394399315710000e+00 3.5110128320150000e+00 8.9851122513229997e-01
192 1.3112079720659999e+00 -3.0614595430499998e+00 -1.2792605187210000e+00
