LAMMPS data file extracted from NVT dump, timestep 1180000, units metal

192 atoms
2 atom types

0.0000000000000000e+00 1.6195563468200000e+01 xlo xhi
0.0000000000000000e+00 1.6195563468200000e+01 ylo yhi
0.0000000000000000e+00 1.6195563468200000e+01 zlo zhi

Masses

1 12.00000000
2 16.00000000

Atoms # atomic

1 1 5.4155096026820004e+00 1.5865138692830000e+01 1.2126888524270001e+01
2 1 8.6961560970700003e+00 6.0158237609479999e+00 5.7341027211769999e+00
3 1 1.4318167151280001e+01 3.0657991706079999e+00 2.4568079349519998e+00
4 1 2.4467892489510001e+00 1.5817231371140000e+01 7.2801280884380004e+00
5 1 6.7549886609629999e+00 9.9953329222370009e+00 2.0258930483480002e+00
6 1 1.0082784837840000e+01 3.9463365154990000e+00 9.5990390074769998e+00
7 1 7.0746100536530001e+00 1.3200088606550000e+01 2.7876977342239999e+00
8 1 1.3779142774440000e+01 1.4478365420029999e+00 1.3785693793869999e+01
9 1 1.2045021572240000e+01 2.6169946990390001e+00 6.5652597260960004e+00
10 1 1.0735633174120001e+00 3.8638044967320000e+00 8.6130091115810004e+00
11 1 1.0216179351730000e+01 8.0086350373890003e+00 2.3373941420639999e-01
12 1 1.0624935217879999e+01 1.0284206147650000e+01 1.2982699145410001e+01
13 1 3.9174731776999998e+00 1.2088350276640000e+01 1.6248792762850001e-01
14 1 1.4346158716670001e+01 8.4512084830669991e+00 1.4450980144020001e+01
15 1 1.5280742623700001e+00 9.0179921033239996e-01 2.2687756348249999e-01
16 1 1.2217037169190000e+01 7.9401378026440002e+00 3.0931265837309998e+00
17 1 2.0885802339050001e+00 7.2747408292640001e+00 6.2014610495370004e+00
18 1 8.2674541372650001e+00 1.3148267789480000e+01 1.0717757867470000e+01
19 1 6.8968953211760002e+00 1.0157010909980000e+01 8.3213104991219993e+00
20 1 1.1200402867750000e+01 1.8793285049670001e+00 2.4651880590189998e+00
21 1 5.8369422833169997e+00 1.3841409413970000e+01 7.7291304650620001e+00
22 1 5.9166664202319996e+00 7.6677462102720000e+00 1.5249181925180000e+01
23 1 8.5665012234310005e+00 1.0304620681430000e+01 5.3076477938049997e+00
24 1 2.9212756389569998e+00 1.4486721720060000e+01 3.1173460598589999e+00
25 1 1.1174234155240001e+01 1.5956143880060001e+01 1.0424794493129999e+01
26 1 8.5166552214610007e+00 4.5060544559520004e+00 1.4469611400610001e+01
27 1 2.9058481240730001e+00 9.0339449012450004e+00 3.2126390560260001e+00
28 1 1.5853078514150001e+01 8.9630720735570009e+00 2.0213623547289998e+00
29 1 1.3408579043260000e+01 1.0678782815280000e+01 6.5049072947150002e+00
30 1 2.9648439631780001e+00 4.0385778795530003e+00 5.4439632118820001e+00
31 1 4.3515813470260003e+00 1.2158302382470000e+01 1.1567893614690000e+01
32 1 4.4009223667170003e+00 3.1968811854879999e+00 1.5626738731190001e+01
33 1 5.3845229469750000e-01 4.6792169977659999e+00 1.3696749525810000e+01
34 1 1.0762871959869999e+01 1.1177506741200000e+01 1.7835729601150001e+00
35 1 2.4647695597710002e+00 1.0748827520120001e+01 8.9691232702269996e+00
36 1 1.0341496786370000e+01 1.1130136528860000e+01 8.4582617147459995e+00
37 1 1.3618407892330000e+01 1.5371074644180000e+01 4.4180551222759998e+00
38 1 7.7782877978930003e+00 1.2286270678870000e+01 1.5157989394219999e+01
39 1 7.8775935772779997e+00 4.4806542570060000e+00 2.8685836511620000e+00
40 1 7.7164671180970004e+00 1.8482706665530000e+00 6.3833233314719999e+00
41 1 1.0961938959519999e+00 1.4111908621790000e+01 1.1453888622110000e+01
42 1 1.2527898317829999e+01 5.3075559558709999e+00 1.6166088773220000e+01
43 1 1.4837714648310000e+01 2.8169299986390000e+00 1.0557517260799999e+01
44 1 1.0690347053709999e+01 1.4758530460990000e+01 2.5813060532740000e+00
45 1 1.4422658413210000e+01 1.0786467631300001e+01 1.1596197592919999e+01
46 1 2.5696143016189998e-01 1.3085701763590000e+01 6.6068147077020001e+00
47 1 1.6212381265450000e+00 9.5562582922910000e+00 1.4251106664490001e+01
48 1 8.6285124090750003e+00 1.4826908600290001e+00 1.2558846120509999e+01
49 1 1.3039551953409999e+01 1.3019336695680000e+01 9.4834637311750001e+00
50 1 3.4762457560520001e+00 8.3731635066720003e+00 1.1046740730370001e+01
51 1 3.4879800488680002e+00 1.1680735884210000e+01 5.1946449942650004e+00
52 1 1.1828892067400000e+01 7.0718441651859996e+00 7.7331432519470003e+00
53 1 9.9520433784679998e+00 1.4552017380520001e+01 6.5447360417420004e+00
54 1 5.3539865778919999e+00 7.8694505756540001e-01 2.6044553573179998e+00
55 1 1.3134809032260000e+00 5.8771032486830004e+00 1.4629979691970001e+00
56 1 7.6609733538459999e+00 4.0776542020739998e-01 1.6130237583669999e+01
57 1 1.4959208727389999e+01 7.2043483725820003e+00 9.4468015016870002e+00
58 1 7.7411456135519998e+00 7.3331999269079997e+00 1.1365070927770001e+01
59 1 1.2467614856730000e+01 4.9034670757369998e+00 1.2749021911370001e+01
60 1 5.8884399591639998e+00 4.6282924526200002e+00 1.0425703782379999e+01
61 1 3.0089407442089999e-01 1.0166106030490001e+00 4.7564666070159998e+00
62 1 1.1981272399110001e+01 1.3642784167089999e+01 1.4167835777290000e+01
63 1 1.4451965692900000e+01 5.3097110100400000e+00 6.4686085373360003e+00
64 1 1.4620884157940001e+01 1.1851158263500000e+01 1.6685547027780001e-01
65 2 5.3015991882379998e+00 1.4972499889180000e+01 1.1372109489570001e+01
66 2 5.5993410076219998e+00 4.5324924700609998e-01 1.2984324950460000e+01
67 2 7.7179757755010003e+00 6.2454511444099996e+00 5.1394014618200003e+00
68 2 9.7122295986040008e+00 5.7312817864449999e+00 6.2795586198139999e+00
69 2 1.4630090376180000e+01 3.2701623594939999e+00 1.3655433712650000e+00
70 2 1.4120794184690000e+01 2.7521803089210000e+00 3.5690732002150001e+00
71 2 1.8685248762569999e+00 1.5301404924330001e+01 8.1592030233450004e+00
72 2 2.9445428566800000e+00 1.1015241995880000e-01 6.3273019536010002e+00
73 2 7.6358317509429998e+00 9.8418896852179998e+00 1.2693441441740001e+00
74 2 5.7978783219150003e+00 1.0042492935889999e+01 2.7488728653110002e+00
75 2 9.8118040813840004e+00 5.0455836702279999e+00 9.3728502799470004e+00
76 2 1.0360513326020000e+01 2.8073910373930002e+00 9.6994938606770003e+00
77 2 6.9140933691670003e+00 1.2889651576249999e+01 1.6418013066529999e+00
78 2 7.2064097620909999e+00 1.3524569847690000e+01 3.9256615649070001e+00
79 2 1.3520223442160001e+01 3.2650679174120001e-01 1.3422608650850000e+01
80 2 1.4085832729240000e+01 2.4884784863029998e+00 1.4227665710149999e+01
81 2 1.2648182908330000e+01 2.0005080574740002e+00 7.3435561371910003e+00
82 2 1.1523453968409999e+01 3.2433780849449998e+00 5.7232177478680004e+00
83 2 5.5534512872170005e-01 2.8772922321159999e+00 8.2961034560320002e+00
84 2 1.5144057265840001e+00 4.8523949252619998e+00 9.0651309923630006e+00
85 2 1.0101686130219999e+01 8.3944944635780008e+00 1.3634258913790001e+00
86 2 1.0343725110590000e+01 7.6315196392050000e+00 1.5349463981850000e+01
87 2 9.5889612744560004e+00 1.0697037488579999e+01 1.2629598000510001e+01
88 2 1.1634946157090001e+01 9.9366190072659997e+00 1.3437394905130001e+01
89 2 3.6315677811290001e+00 1.3209274370510000e+01 1.6138021409379999e+01
90 2 4.1999397389860000e+00 1.0973564975220000e+01 4.5577467662290000e-01
91 2 1.5201409649269999e+01 8.0033375144949996e+00 1.3831147199120000e+01
92 2 1.3470899875270000e+01 8.9201156565880009e+00 1.5083046104859999e+01
93 2 2.0052755158540001e+00 1.6059345824920001e+01 3.7128262864850000e-03
94 2 9.6734378396770004e-01 1.9329770583320001e+00 2.9221930577790001e-01
95 2 1.2584544605680000e+01 7.7772468741610004e+00 1.9440577533829999e+00
96 2 1.1914319526520000e+01 8.1483677095560001e+00 4.2119263976859997e+00
97 2 2.8848043434870001e+00 8.1039671196250005e+00 6.0558495827129999e+00
98 2 1.2467805116760000e+00 6.4316705510189998e+00 6.2841300470719998e+00
99 2 8.2925920031259999e+00 1.2755476680430000e+01 9.6121474082870009e+00
100 2 8.2979153009149993e+00 1.3403350723470000e+01 1.1821183756500000e+01
101 2 5.9222129127890000e+00 1.0841848937629999e+01 8.2473243808269991e+00
102 2 7.9025803733249997e+00 9.5529359954820006e+00 8.3087674397590003e+00
103 2 1.2225576918370001e+01 1.3262932124130000e+00 2.1495156390229999e+00
104 2 1.0215161500150000e+01 2.4036305340449999e+00 2.8098669220380001e+00
105 2 5.9711509969299996e+00 1.3436527257930001e+01 6.5926359325549999e+00
106 2 5.7485352821679996e+00 1.4342383920720000e+01 8.7822170760889993e+00
107 2 4.9517215564710000e+00 7.7332703168109997e+00 1.4547742707519999e+01
108 2 6.8611628143349996e+00 7.4020254921530002e+00 1.5880454170100000e+01
109 2 8.8907479996099994e+00 9.2642003264199992e+00 4.8688465752959997e+00
110 2 8.2383613521529995e+00 1.1392932001129999e+01 5.6336024595209997e+00
111 2 4.0278036977360001e+00 1.4632734258050000e+01 3.4724548506390001e+00
112 2 1.8134090476280000e+00 1.4458433084659999e+01 2.8505766478529999e+00
113 2 1.0030604731110000e+01 1.5612216256920000e+01 1.0557364521409999e+01
114 2 1.2297386364659999e+01 1.0890130566050001e-01 1.0166427318960000e+01
115 2 9.5501661610559996e+00 4.5086560687880004e+00 1.3908976823210001e+01
116 2 7.4611561938989999e+00 4.5550177764640001e+00 1.4972806843590000e+01
117 2 3.5204993560500002e+00 8.0144659910870004e+00 3.5148627414689999e+00
118 2 2.2312497549889998e+00 9.9616013292899996e+00 3.0234372405590002e+00
119 2 1.6201173267960002e+01 8.6960988113309998e+00 9.3910022352570000e-01
120 2 1.5519119253910000e+01 9.2062496643559992e+00 3.1361213162919999e+00
121 2 1.3482077847010000e+01 1.0648410523330000e+01 7.6604799453809997e+00
122 2 1.3459299416490000e+01 1.0549964396780000e+01 5.3136816937729998e+00
123 2 3.9117618986929998e+00 4.6075780631720002e+00 5.7965015470939996e+00
124 2 2.0200122104379998e+00 3.4086384739470001e+00 5.1203716086659998e+00
125 2 5.1506685461249999e+00 1.2226860135430000e+01 1.0723245159830000e+01
126 2 3.5135725701929998e+00 1.2074205866200000e+01 1.2345414748300000e+01
127 2 3.7884755027470001e+00 3.3262063499140000e+00 1.4623198699570001e+01
128 2 5.0952954960760000e+00 3.0317672963389999e+00 3.8489707426399999e-01
129 2 5.4948806486220003e-01 4.3898595224310002e+00 1.2515867660200000e+01
130 2 5.1798687099090002e-01 5.0501456927890001e+00 1.4818899006310000e+01
131 2 1.0132844343560000e+01 1.1358805079550001e+01 2.7863106072130002e+00
132 2 1.1321080114610000e+01 1.1023431305660001e+01 7.7898439668069996e-01
133 2 2.7763389920020001e+00 1.1865025983120001e+01 8.9876776120899997e+00
134 2 2.1047252758680002e+00 9.6168632800220006e+00 8.8944802448739999e+00
135 2 1.0442151187830000e+01 1.2022698541920001e+01 7.6888883489220001e+00
136 2 1.0326895671250000e+01 1.0311690057690001e+01 9.3151554276530000e+00
137 2 1.3054934326930001e+01 1.5524289732410001e+01 5.4330200010120002e+00
138 2 1.4053898981240000e+01 1.5247454462009999e+01 3.3629343677530001e+00
139 2 6.6749984953929999e+00 1.2138862353230000e+01 1.4841453752240000e+01
140 2 8.9303658327789996e+00 1.2360123456020000e+01 1.5338314467580000e+01
141 2 7.1572547071060004e+00 3.7854732941439999e+00 3.4404477531239999e+00
142 2 8.6081194175379991e+00 5.2291398020389996e+00 2.3288196688260001e+00
143 2 7.5702536895149999e+00 2.8363946486259999e+00 6.9885435061449996e+00
144 2 7.8877436024270002e+00 9.6350847001240003e-01 5.6068735290619998e+00
145 2 3.4643797228390000e-01 1.3336723100280000e+01 1.0972854054240001e+01
146 2 1.9585385725069999e+00 1.4755714300819999e+01 1.1905746475779999e+01
147 2 1.3604194710640000e+01 5.7459834595180004e+00 1.5926109206680000e+01
148 2 1.1460193837649999e+01 4.8384469761629996e+00 1.6806714045950000e-01
149 2 1.4445203674049999e+01 3.8917790801400001e+00 1.0309720900449999e+01
150 2 1.5249103394830000e+01 1.7065050685920000e+00 1.0655006697730000e+01
151 2 1.1503150112049999e+01 1.3918769757480000e+01 2.4356229709510000e+00
152 2 9.7878643358709994e+00 1.5515021104130000e+01 2.6342232008069999e+00
153 2 1.4389949590200001e+01 1.0136608491640001e+01 1.0605016828320000e+01
154 2 1.4427868263120001e+01 1.1474366068929999e+01 1.2569279703410000e+01
155 2 3.1593400958970003e-01 1.2045053986419999e+01 7.1275186740930003e+00
156 2 1.5828919162370000e-01 1.4153366915630000e+01 6.1230955525119999e+00
157 2 1.4486758326670000e+00 1.0355963573020000e+01 1.5087320359030000e+01
158 2 1.8778002990539999e+00 8.7490324074050001e+00 1.3411997444230000e+01
159 2 8.2566055278070003e+00 2.1143954414700001e+00 1.1619862641899999e+01
160 2 8.9394004177650004e+00 9.0257680168980003e-01 1.3551838376159999e+01
161 2 1.3852162612170000e+01 1.3519206672639999e+01 8.8463486490979992e+00
162 2 1.2101879052090000e+01 1.2661303868379999e+01 1.0130097450570000e+01
163 2 3.2138470781259998e+00 7.2413371971230003e+00 1.0985221600430000e+01
164 2 3.7927882476780002e+00 9.4686266344520007e+00 1.1229875883900000e+01
165 2 4.2799558624060001e+00 1.0877977123719999e+01 5.4117055033810004e+00
166 2 2.6458353165160000e+00 1.2480139430800000e+01 5.0135100544439997e+00
167 2 1.1399188697790001e+01 8.0391718103350005e+00 7.2832009778120002e+00
168 2 1.2310712089730000e+01 6.0846405996669999e+00 8.1794572373189993e+00
169 2 9.9843359377700001e+00 1.5269089394440000e+01 7.4865668752870000e+00
170 2 9.8281813323169995e+00 1.3926926594979999e+01 5.5730282150279997e+00
171 2 6.4104624632669998e+00 3.0068612664099997e-01 2.6770631517969998e+00
172 2 4.3996808242289998e+00 1.4315614108660000e+00 2.6032570421100001e+00
173 2 2.4250358009339998e+00 6.0020495142619996e+00 1.1320736785750001e+00
174 2 2.3473619018990000e-01 5.6650265702459999e+00 1.8355757266020001e+00
175 2 8.1952941992950006e+00 1.3664162433620000e+00 3.5990740297809998e-01
176 2 7.1937606215030003e+00 1.5567224665980000e+01 1.5760170598800000e+01
177 2 1.4938700875229999e+01 6.8008139220009998e+00 1.0513821901000000e+01
178 2 1.5033977920930001e+01 7.5375010018159996e+00 8.3490319579059999e+00
179 2 8.7816626843140000e+00 6.8640598603939997e+00 1.1632498890610000e+01
180 2 6.6558488951530004e+00 7.6990434153000002e+00 1.1103901274709999e+01
181 2 1.3014096572170001e+01 5.9291253272319997e+00 1.2842453432050000e+01
182 2 1.2059586323820000e+01 3.8069187601720000e+00 1.2731351029510000e+01
183 2 6.9711141044740002e+00 4.6963083883729997e+00 1.0844801417110000e+01
184 2 4.8120345550370001e+00 4.5822090103080004e+00 9.9373760045800008e+00
185 2 1.5769209869719999e+01 1.2083166448330001e+00 5.6350295488800004e+00
186 2 1.1115650180750001e+00 9.0840087336080000e-01 3.9743812366380000e+00
187 2 1.2055647861860001e+01 1.3543165896350001e+01 1.5337135508030000e+01
188 2 1.1873854955020001e+01 1.3618824436220001e+01 1.3012098480000001e+01
189 2 1.4303716208140001e+01 6.0339706356180001e+00 5.5769124362920000e+00
190 2 1.4623273080600001e+01 4.5864351481190004e+00 7.3550730567739997e+00
191 2 1.4240323189720000e+01 1.1645325093900000e+01 1.2576706423690001e+00
192 2 1.5078725860740001e+01 1.2066780793930000e+01 1.5292608427299999e+01

Velocities

1 -5.1468432179479997e+00 -3.4305207568229998e+00 1.5862413339410000e+00
2 1.1323391174249999e+00 -6.5543502502319999e+00 6.4077197370669996e+00
3 3.4808979140049998e+00 5.3929810200199997e+00 -9.2032770711069993e+00
4 3.4524331682699998e+00 -5.3477292682159998e+00 -4.4207435483410003e-02
5 -1.0070506111820000e+01 -1.6214259777550000e+00 1.9185422083629999e+00
6 -2.0912182061819999e+00 -7.5000009320269996e+00 8.4151221893020001e+00
7 -6.1293386925139997e+00 4.4442737581350000e+00 -4.2142523951189998e+00
8 -4.3084720980610003e+00 -1.0300930883910000e+00 4.1285051960410000e+00
9 4.8383393754500004e+00 -7.5457283370179997e+00 8.3417425682419992e+00
10 -4.8356931531470000e+00 2.2807709886429999e+00 -2.4295007195000000e+00
11 -8.6495400800229998e+00 -5.0844653517309997e+00 1.9893115600389999e+00
12 2.8731894740480002e-01 1.3462760415710000e+00 2.8425547280419998e+00
13 5.4384693743070001e+00 -4.7013079028530003e+00 -5.0894778646750005e-01
14 3.8031099615250002e-02 -4.5848102494420004e+00 6.9752561161430005e-01
15 -2.8042664955499998e+00 2.8697218334860000e+00 -4.9845202561489999e-01
16 -3.6951903236380002e+00 8.7967008170640000e+00 1.2180946053020001e+00
17 4.8375641645370004e+00 -1.8081898435279999e+00 -5.5332999242549996e-01
18 -1.9725631029420001e+00 -9.3384806754810001e-01 -1.6283081810900000e+00
19 -3.3574162824460001e+00 5.6191559421940003e+00 1.6627951489730000e+00
20 3.5785390286570000e+00 2.1162263750589999e-01 -1.2533501442049999e+00
21 4.8814029454840000e+00 -7.6050816646610002e+00 -3.9307653769430000e+00
22 -4.0995884852969997e+00 7.5074406767959996e+00 2.0580427087760000e+00
23 -4.3448345012780001e+00 4.8081082060300000e+00 -4.2154553092090001e+00
24 4.0631324762709999e+00 3.9277865801290002e-01 7.1746979480019997e+00
25 -7.3389415549750003e+00 1.8153687913850001e+00 -3.1726714720690001e+00
26 -5.2678584926349998e+00 -8.7836174382010002e-01 -2.3866404619449999e+00
27 3.5095915727309999e+00 -3.6766185630249999e+00 -4.4582577342759997e+00
28 -1.2074957003900000e+00 -2.7027600515420001e+00 4.1134595557990004e+00
29 3.0906524608010000e+00 6.3272934296069998e+00 -6.9226295966659999e+00
30 -1.4918950772720001e+00 -3.4889933526810002e+00 -6.4711257933190003e-01
31 4.3934236536569999e+00 -6.4924898521810004e+00 -5.4318429950329996e+00
32 -2.6480931585740000e+00 1.8984168834760000e+00 3.6417945314660001e+00
33 6.2937660855169997e-01 -2.1753038283090000e+00 4.4520867344920001e+00
34 -2.4715964539440001e+00 -9.4555935418449995e+00 2.1674617514500000e-01
35 2.0689842880999998e+00 -3.1432686582580001e+00 1.6096888491360000e+00
36 -2.9029070664590000e+00 -2.5560803292130001e+00 2.6186878547060002e+00
37 -4.8344964483350000e-01 -4.1896271365650000e+00 2.3027293910909998e+00
38 -1.1667708761610001e+00 3.6267033977729999e+00 -8.0470178728209996e-01
39 -4.6760827891780004e+00 1.1251175766479999e+01 -5.3962786612720004e+00
40 7.7808807247600003e+00 6.7986087031429996e+00 -1.3542710343850000e+00
41 2.4091233638899999e-02 -5.1763124595070001e-02 -2.7030990805490002e-01
42 2.7718253715399999e+00 -2.7530304415470002e+00 -2.1019593586790002e+00
43 -9.7411833260470004e-01 1.0161714494520000e+00 3.9302859612940000e+00
44 5.1270867476950004e+00 -7.4945238483790000e-01 2.1048490255550001e-01
45 -7.2643558257640004e+00 7.7251432805660003e-01 -6.2540449015370001e+00
46 1.8212266566290001e+00 -2.0318137531840000e-01 4.1909452437910000e+00
47 -2.3458006096270001e+00 9.3681437076030001e+00 2.0611132168299999e+00
48 3.5320359875510001e+00 -3.2830902040569998e-01 9.4890651687039995e-01
49 -1.6506918988349999e+00 -4.7265850934709999e+00 7.1746204788319998e+00
50 -1.4199398536079999e+00 2.1119250760799999e+00 9.4059673166869995e-01
51 -1.7004628694370001e+00 -7.0924517462290004e-01 -8.0272262454450005e-01
52 -7.7561040546200000e-01 -5.0942528267569998e+00 7.8435588356940000e+00
53 -2.9576576292760001e-02 -1.4770893569440000e+00 8.8829537579130002e-01
54 4.3082389664890002e+00 7.7754670969869997e+00 9.3740806530459997e-01
55 -6.4530542423249999e+00 -9.3197296552979994e-02 4.4885939989369996e+00
56 1.2153110577270001e+00 -4.5023025969120001e+00 3.5988354334640000e+00
57 -1.9868530888360001e+00 -4.8041315409949998e+00 -4.2457881040879997e+00
58 -1.2025983062250001e+00 6.5307607606399998e-01 -8.2274001285890002e+00
59 4.2981729854969997e+00 -4.6930714997559999e+00 5.7979797708880003e+00
60 -7.6244131362790002e+00 -9.8648996770740005e-01 -7.3008414312019998e-01
61 2.2404574153510000e+00 -4.3325636315559999e+00 -3.8936133957340000e+00
62 7.0718326977360002e-01 -3.2723706754729998e-01 5.2058276339849998e+00
63 -1.1993353328650000e+00 2.3846909823220002e+00 -2.7430377574620000e+00
64 -2.6252909342330000e+00 4.0496935032970001e+00 4.8366092889400001e+00
65 -5.1466251682510000e+00 8.9263566439580000e+00 -1.0382249279860000e+01
66 5.9855207535860000e+00 7.8274360752840000e-01 -1.2548947890750000e+00
67 3.4098947789779999e+00 1.5410291886570000e+00 2.3808387261960000e+00
68 2.2333277866180001e+00 1.7661054279930000e+00 -5.2404065945050000e+00
69 -4.6451858948469998e-01 -4.6820295519600004e+00 -7.8489315893269995e-01
70 2.8374751188760001e+00 -2.4951318407070000e-01 -8.0398162934629998e+00
71 6.5830301143240000e+00 3.5179239797700002e-01 2.2284145522890002e+00
72 4.5457418763810002e+00 -2.8221284822240000e-01 1.4816551922040000e+00
73 7.9075834278709998e+00 2.5041869908119998e+00 2.8027122414740000e+00
74 2.0184590241100002e+00 2.4097925702579999e+00 -2.2650848197780000e+00
75 2.7281808439400002e+00 8.5430926767820003e-01 2.0965772759500001e+00
76 2.8754814707819998e+00 -3.2991337436219998e+00 -3.0643389537490000e+00
77 3.5221434551600002e+00 -1.3363358943920001e+00 1.3141219265940001e+00
78 -9.7190229798320005e-01 7.4091021498630005e-01 9.7870063386520001e-01
79 -1.3992087078900000e+00 -7.3913601409800000e-01 1.0490909713929999e+00
80 -2.8984485224359999e+00 7.0452287007920003e+00 -2.3853111227219999e+00
81 -1.5720073636220000e-01 2.0433571089570002e+00 -2.2735346909519998e+00
82 1.5284273080819999e+00 2.6317354868559999e+00 -8.7367795463209996e-01
83 8.9703761460090004e-01 -3.9281489857410001e+00 -8.0956276035220007e+00
84 -1.0350315673480001e+01 3.7411009435599998e+00 -3.9604018564789998e+00
85 -7.9676109139460005e-01 4.6420562316479996e+00 3.6314992010760001e+00
86 -5.6308952507600001e+00 -1.4022626193800001e+00 -3.3525802229399999e+00
87 -5.2874660410640004e+00 -4.2281199945469998e+00 1.5561362836720001e+00
88 -1.9551291267560000e-01 -2.3546462057999999e+00 -7.5763667980890004e+00
89 -3.8575418599610001e+00 3.0648952819750002e+00 2.3383123779610000e+00
90 -9.1734623523070002e-01 1.3924356009290000e+00 -2.5470684993570001e+00
91 -1.1500794925450000e+00 -2.3876591781500001e-01 1.3043451312750001e+00
92 1.2814970145650000e+00 3.8010115881830000e+00 5.2711613895209997e-01
93 4.6395367410740002e-01 -4.3719377701029999e-01 -2.3105448642009998e+00
94 3.4204150667540001e-01 3.6889986299280002e+00 -4.3254188933610003e+00
95 -3.3035442085960001e+00 1.2738732025700000e-01 -1.5229365443339999e+00
96 1.8150171633320000e+00 3.6784897237480001e+00 3.3276451427069997e-01
97 7.6086893844820001e+00 -1.6448491503910001e+00 3.8470611959270000e+00
98 2.0090086321830000e-01 -6.9693273196699996e+00 4.0445224997870000e+00
99 7.3268988675940001e+00 1.0046808780899999e+01 -2.9506639363920000e+00
100 -3.7390220914810000e+00 2.7031758009760001e+00 -5.3708580480719998e+00
101 3.3122894172400001e+00 6.0623286598480002e+00 -3.8979081706069998e+00
102 -5.2380335265889997e+00 -4.4389993222469997e+00 -2.8303098181049999e+00
103 3.3895570203520000e+00 1.2500755214010000e+00 -3.3915423461910001e+00
104 5.7581904899929999e+00 -3.5544195341450000e+00 6.4571567706180000e-01
105 -5.2604683016230003e-01 6.7664478546720002e+00 -7.0982173014769998e+00
106 -5.8215717399729998e+00 1.3908832746469999e+00 -1.1011802999039999e+00
107 -6.4986881915990002e+00 -1.0028943391250000e+00 9.5534157268419995e-01
108 4.9347129305889998e+00 1.8670652930709999e-01 -1.0829034119490000e+00
109 1.9611745437129999e+00 -2.0286640647879999e+00 1.0573539172390001e+00
110 3.4321387638560003e-01 4.4493214573079998e+00 5.6901975865940002e-01
111 1.0874164451649999e-01 -1.4954955954960001e+00 -3.1032293971180001e+00
112 3.2335749163440002e+00 -1.8934905901540000e+00 -1.1698674330750000e+01
113 2.2481359327610000e+00 -6.1623950491830004e-01 1.8192217977609999e+00
114 -1.1002281830239999e+01 -7.0236378012099996e+00 -4.3883279152219998e+00
115 -2.5159027815839998e+00 -2.4890198325760000e+00 -1.8562873160580000e+00
116 6.9029141346219998e+00 2.3395312205450001e+00 -4.3343841773960001e+00
117 -1.4458103056739999e+00 -6.2040296317830004e+00 2.3468289023820001e+00
118 -1.2048787116449999e+00 -3.3750624059919998e+00 -6.3273000279860003e+00
119 7.8058598016009995e-01 -6.1470867990129996e+00 -1.6495384471250001e+00
120 6.4254465634640001e-01 -1.7847963888430001e+00 -4.2554971387269998e+00
121 -8.0156604490010004e+00 6.6541221302439997e+00 -1.1825319077909999e+00
122 2.1924774970329999e+00 4.8836779733390001e+00 -2.6789425447170001e+00
123 -6.1448878238739999e+00 -8.7002925554419992e+00 5.3606884290680004e+00
124 -1.9659302899290001e+00 5.1431884870340001e+00 -2.4747008436300000e+00
125 -2.7784347092310000e+00 -6.7224480880810003e+00 1.2789522591550000e+01
126 3.8112082632730000e+00 -2.4160359687209998e+00 -1.4145160069220000e+00
127 7.4824403368600001e-01 4.0617184295940003e+00 1.9054676447750001e+00
128 6.0127555886369999e+00 3.2986392769330002e+00 -3.6165841090780000e+00
129 -2.2305728145599999e+00 5.6578109311439997e+00 -4.5296158525820003e+00
130 1.4589233448860000e+00 -2.2476818944570001e-01 5.7200117910399995e-01
131 2.3957217605990002e+00 4.2847035658799998e-01 -4.6023137457540004e+00
132 2.2228251588079999e+00 -4.6822688248009996e+00 5.4081514585320001e+00
133 2.0182718600960001e+00 1.5455123038480001e+00 -9.8366147697350004e-01
134 3.4731734853829999e-01 -4.5461416471679996e+00 8.5481760120619998e-01
135 7.2150229045570002e+00 2.2068038460219999e+00 -2.0070808854840001e+00
136 -6.4418965712660003e-01 1.2312081953530001e+00 5.4238424969940002e+00
137 -1.7953571520530001e+00 -2.1570289734769998e+00 -2.8697459092559998e+00
138 -4.1619190451349999e+00 8.9470982603299998e-01 -6.6414935332970004e-01
139 1.7458164359999999e+00 -2.8811508132179999e+00 -2.6001792320699999e+00
140 6.6031082913850003e+00 -5.6991455321620004e+00 5.2375179638490001e+00
141 -2.9669436212670002e+00 1.0365406523400001e+01 -1.0139271409770001e+00
142 6.2199827856330003e+00 -4.3496527246439998e+00 -3.8647089767659999e+00
143 -2.4290070964470001e+00 -2.8584197363819999e+00 -5.0866001644650005e-01
144 2.5417254758409999e+00 1.0613206585980000e+01 1.8794498643519999e+00
145 1.3973844507910000e+00 5.9967116415309996e-01 4.2779413275250002e+00
146 8.6410764453559992e+00 -7.2109323753419996e-01 -4.4254518118819997e+00
147 2.3267610444120002e+00 5.3775216223809998e+00 6.1117851989779997e+00
148 1.0581699521000001e+01 3.4654094460130000e+00 6.7249008296910002e+00
149 -5.7172581921800001e+00 1.2950019441680001e+00 -5.3662689724159995e-01
150 -3.8525412965029999e+00 4.2764975703430004e+00 6.7346865800080002e-01
151 1.8728663393050000e+00 -7.3759435697600004e+00 -2.1433833087859999e-01
152 4.6450726689469999e+00 1.0187381711579999e+00 -7.7297151571459999e-01
153 -6.2813533759469999e+00 2.3982411740470000e+00 -2.9836347697250001e+00
154 -3.9156602098979998e+00 -4.0779502467070000e-01 2.4337067707850002e+00
155 -3.3829686403610002e+00 -1.6581554119349999e+00 -6.3866014985649997e+00
156 -3.3281166017969999e+00 -1.3416172630590000e+00 -3.5136370970869999e+00
157 3.4205688875820002e+00 -9.6381524288890006e+00 1.0012595634440000e+00
158 -1.0729880634310000e+01 -3.6643073091270000e+00 9.1006098790450007e+00
159 3.0836295187450000e+00 3.3380927496420001e+00 -9.2143413994820005e+00
160 1.5885048361160001e-01 1.4097160548720000e+00 -1.8699258234200000e+00
161 -7.3386570189920004e+00 1.9743239626789999e+00 1.4580115007250001e+00
162 3.9882442450880000e+00 3.2341506105429998e+00 3.2342284990849999e+00
163 1.5556318272720000e+00 9.8334425249389998e-02 2.6048786159480000e+00
164 4.8316928523860003e+00 -2.2692847483560000e-01 5.9291881105810003e+00
165 -1.5500984750540001e-01 3.6626613850359999e+00 -1.6854309324130001e-01
166 -8.6336342183479997e-01 2.0543942294930000e+00 -4.1952953711319996e+00
167 -4.3176769138179996e+00 5.2458608578929999e-01 2.6479313384270000e+00
168 7.5202236387090000e+00 -2.3074789967789999e+00 9.4942927999390001e+00
169 -2.8619639355239999e+00 -1.0357487132850001e+00 3.3551113878519998e+00
170 5.6679305113679996e+00 2.1062016141380000e+00 4.9172874914379996e+00
171 2.5971594606560000e+00 -4.0482262201279999e+00 3.3612162921049999e+00
172 -5.1364717742850001e-02 -1.2904111456889999e+00 -3.2983340286919999e-01
173 -4.4031143293510002e+00 5.9325340612439996e+00 5.1057592363600002e-01
174 1.1021821608130000e+00 -1.6042481829899999e+00 -2.5093799903899998e+00
175 6.5563943619540002e+00 8.7430716912490003e-01 9.4576458806760000e-01
176 -2.1930536020050001e-01 -1.5046877462120001e+00 3.2455192506959998e+00
177 -3.4153814421409998e+00 -2.1571065596770000e+00 7.1588684887329999e+00
178 -3.4884623105590000e+00 2.7993920243049999e+00 5.1765149281209997e+00
179 -4.2074196633129999e+00 3.1617854866870001e+00 -4.8602866989799998e-01
180 9.4198307981569995e-01 -1.1227659569520000e+01 3.9390848359419999e+00
181 -4.5463987665520000e-01 1.1336524285259999e+00 1.3323319380100000e+00
182 -5.7171291610420001e+00 5.7095920491800003e+00 2.5884712099290001e+00
183 -4.2913621899269999e-01 -3.3713315638969998e-01 -1.1021854482700000e+00
184 5.8977197379620003e+00 -3.6309115377899999e+00 1.9455417072870000e+00
185 4.1349898238330001e+00 2.4851667138150000e+00 1.6206233191240000e+00
186 -5.4195118375100000e+00 -5.8471791976580000e-02 -5.0617436446410000e+00
187 8.8232583458659997e-01 -2.3462000634400000e+00 -6.0278055832890001e+00
188 -6.3919673133790003e-02 -1.2045221016520000e+00 7.1181404247369997e+00
189 -5.1778196893189996e+00 -1.7072966562109999e+00 7.5337628179890004e+00
190 2.3885252459580002e+00 -9.0164801667479999e-01 -5.5998010264120002e-01
191 4.1465089798110002e+00 -5.8735449408380003e+00 7.5528232484690001e+00
192 -5.0635736060750003e-01 1.2310668724410000e-01 1.3376405589029999e-01
