LAMMPS data file extracted from NVT dump, timestep 1040000, units metal

192 atoms
2 atom types

0.0000000000000000e+00 1.6195563468200000e+01 xlo xhi
0.0000000000000000e+00 1.6195563468200000e+01 ylo yhi
0.0000000000000000e+00 1.6195563468200000e+01 zlo zhi

Masses

1 12.00000000
2 16.00000000

Atoms # atomic

1 1 2.7089089443190000e+00 1.3243198518520000e+01 7.7214810051800002e+00
2 1 6.0329485591419996e-01 1.5301922782309999e+01 1.0521777649690000e+01
3 1 1.0614609530859999e+01 6.2903952784630004e+00 2.4277804820730000e+00
4 1 7.9126497558880005e-01 5.5717964929109998e-01 2.3902227761099999e+00
5 1 1.4414271749299999e+01 9.6020358233850001e+00 8.3029022239920003e-01
6 1 8.8663909223659996e+00 1.0576753384830001e+01 5.2951829809010000e+00
7 1 1.3389254811860001e+01 1.5243359278920000e+01 7.2497651520820003e+00
8 1 7.7655914568190001e+00 7.3342135700349997e+00 1.2783649192410000e+01
9 1 -1.0020117177820000e-02 9.8811066054270000e+00 5.0403331870169996e+00
10 1 8.3674475155370001e+00 5.0101463896969998e+00 5.1788370398470001e+00
11 1 1.2948513020569999e+01 7.9645904883960004e+00 5.4916516567039997e+00
12 1 9.8243627731639993e+00 9.3013611752189995e-01 6.0281432583440004e+00
13 1 7.1180289977479996e+00 1.1193980420270000e+00 3.8299553309490002e+00
14 1 4.1349822128079996e+00 4.4347249123540000e-01 1.0149537157770000e+01
15 1 8.2952474580259992e+00 1.1089201962720001e+01 9.2743328694519995e+00
16 1 7.0445039419570001e+00 2.2873355129289998e+00 1.4444684271140000e+01
17 1 1.4672373146589999e+01 6.3257200640990003e+00 1.1783113677670000e+01
18 1 2.4214782840050000e+00 3.7870771799050001e-01 1.4508252157079999e+01
19 1 1.0498487847200000e+01 2.7007142824130002e+00 1.5042316224570000e+00
20 1 5.3368051013270001e+00 3.0383406879530002e+00 2.1145502042600000e+00
21 1 7.1785706799379998e+00 1.4424634518580000e+01 9.8715092060010008e+00
22 1 1.5503061452730000e+01 9.0897633732139997e+00 8.9170028955860001e+00
23 1 8.7169050194499995e+00 1.1637590235210000e+01 1.3206370416280000e+01
24 1 1.2270509484909999e+00 5.1959431613960003e+00 4.5672551587869998e+00
25 1 9.3086401444060005e+00 1.5641382727060000e+01 1.4284709098520000e+01
26 1 1.3560240390240001e+01 5.3299394614780005e-01 1.4589410430190000e+01
27 1 1.2679215623999999e+01 1.2690519957010000e+01 1.3003882627650000e+01
28 1 1.4209682977280000e+01 1.2436032531210000e+01 9.3854806506529993e+00
29 1 1.3949833597430001e+01 2.6249077659559998e+00 9.2324652794660000e+00
30 1 4.5771388198149996e+00 1.5065634941540001e+01 1.9402406376620001e+00
31 1 4.3302145047960003e+00 7.9250874325860003e+00 5.3032220691380001e+00
32 1 5.9643905761590004e+00 1.2737785039940000e+01 5.2934423963389996e+00
33 1 8.8649849250470005e+00 4.3703734412159996e+00 1.1374314526230000e+01
34 1 1.4469325367260000e+01 1.2998301522569999e+01 1.5978991081549999e+01
35 1 5.1563464724330004e+00 3.6645754382350000e+00 5.9104053663289999e+00
36 1 3.4544977727499999e+00 2.2977905259900000e-01 5.6254056972960003e+00
37 1 9.4515247118760009e+00 1.3433453959500000e+01 4.6547752477920001e-01
38 1 1.1043589324550000e-01 6.6399161887979998e+00 -2.7828810983390000e-02
39 1 1.0428337610920000e+00 6.5228508244130001e+00 7.7099648708329998e+00
40 1 1.4518047784570001e+00 3.0441323847040000e+00 9.1674352920610005e+00
41 1 1.1124314979670000e+01 1.7450629686390000e+00 1.1948273458999999e+01
42 1 4.1669298257109997e+00 4.4391525085119996e+00 1.4265705865119999e+01
43 1 1.1317124816820000e+01 8.0717824857020002e+00 9.7789387667419998e+00
44 1 7.8012865942909997e+00 5.2495068763269996e+00 1.6275126767600000e+01
45 1 7.8835596088940001e+00 1.8305031047660001e+00 9.8788952198210005e+00
46 1 4.2351181955510002e+00 1.1330493163870001e+01 1.1615202552750000e+01
47 1 2.4760909677290002e+00 1.2228151992090000e+01 -4.2442958889950000e-01
48 1 2.6974578994130001e+00 1.1643308978449999e+01 3.4162816208839999e+00
49 1 1.2356782677549999e+01 1.1704307639820000e+01 4.1580100332320002e+00
50 1 6.1527326841259997e+00 1.2671465013140001e+01 1.5740184345959999e+01
51 1 1.3726493884550001e+01 3.0015767054880000e+00 4.1986334851549998e+00
52 1 4.5767151275820001e-01 2.9000552597809999e+00 1.3252123119940000e+01
53 1 4.8309402345179997e+00 5.2127643360480000e+00 9.5236521070939997e+00
54 1 1.2092495683230000e+01 4.5890054288629996e+00 1.5060111060470000e+01
55 1 8.2934475589780003e+00 9.5804116949489995e+00 2.1456937435170000e+00
56 1 1.5885448106840000e+01 1.0301286691470001e+01 1.2921745040550000e+01
57 1 1.5447192240070001e+01 1.3809524717930000e+01 4.1524933435450002e+00
58 1 2.8818224596289999e+00 9.2752300014220008e+00 9.1608586888520005e+00
59 1 5.3316806600540003e+00 1.5228406185410000e+01 1.2808340994800000e+01
60 1 4.7741577854469996e+00 7.6056706552100000e+00 1.2941705133090000e+00
61 1 3.4242924529419998e+00 8.1833189055430005e+00 1.4305541555460000e+01
62 1 1.1427221873630000e+01 1.5787425890130001e+01 2.8520021947749998e+00
63 1 1.1670868313410001e+01 8.3918414971199997e+00 1.3928922205230000e+01
64 1 1.1610488321900000e+01 4.4937754186349999e+00 7.1860097369340004e+00
65 2 3.8352270562170001e+00 1.2860275552630000e+01 7.7906403233389998e+00
66 2 1.5454377310039999e+00 1.3505860554810001e+01 7.5174050082169996e+00
67 2 -1.5412999511750000e-01 -3.3396168640099999e-01 9.8383068027430003e+00
68 2 1.4469211253940000e+00 1.4786417497320000e+01 1.1159490221170000e+01
69 2 1.0318338201770000e+01 5.6744370662810004e+00 1.4621269763039999e+00
70 2 1.0719970933530000e+01 6.9002737477110001e+00 3.4542330185600001e+00
71 2 2.3977718497309999e-01 1.4971544824000000e+00 2.8025131754240000e+00
72 2 1.3997714194219999e+00 1.5776432681639999e+01 2.1072478221009998e+00
73 2 1.3867877837509999e+01 8.6273726860140005e+00 5.4917603024060002e-01
74 2 1.4992166725330000e+01 1.0587742459750000e+01 1.0841292560789999e+00
75 2 9.3043520530800006e+00 9.5601178803830003e+00 4.8932615101419996e+00
76 2 8.5269284701650001e+00 1.1611705471860001e+01 5.8042624619129999e+00
77 2 1.4222078424479999e+01 1.5085512235290000e+01 6.4350658164740002e+00
78 2 1.2442609369530000e+01 1.5346232317580000e+01 7.9719440964009998e+00
79 2 8.8970430643200000e+00 7.4327243649070001e+00 1.2863207711659999e+01
80 2 6.6204420318070003e+00 7.2828882927479999e+00 1.2840293769480001e+01
81 2 1.9635324788330000e-01 9.6334819656650001e+00 3.8536190225830000e+00
82 2 -1.8108144707179999e-01 1.0113837616490001e+01 6.1715666573250001e+00
83 2 7.7259726644129998e+00 5.3445952089870001e+00 4.2584007531179999e+00
84 2 8.9495989334330002e+00 4.7249452446719999e+00 6.1764840568519999e+00
85 2 1.3867649143770000e+01 7.5188369577329999e+00 4.9314758310039997e+00
86 2 1.2017359070130000e+01 8.3366072910630002e+00 6.0824837813989996e+00
87 2 8.8842289018529996e+00 1.9701119783880000e-01 6.1404050104629997e+00
88 2 1.0762992702340000e+01 1.6445579852459999e+00 5.9495214278680004e+00
89 2 6.0756456726839998e+00 6.1977149201089998e-01 4.0848034663329997e+00
90 2 8.1849220894340000e+00 1.4324284346489999e+00 3.4383933325010001e+00
91 2 3.5792238685490001e+00 1.1876848536100000e+00 1.0869194723540000e+01
92 2 4.7428103923469997e+00 1.5883958897590000e+01 9.4548785029389997e+00
93 2 7.1203231143440000e+00 1.0962559753420001e+01 9.2154822544700004e+00
94 2 9.4291190377769993e+00 1.1247317487789999e+01 9.4237886817450001e+00
95 2 6.1926966604690001e+00 2.3088428335850000e+00 1.5211256276420000e+01
96 2 7.8433737646730002e+00 2.3205486578830001e+00 1.3595526178340000e+01
97 2 1.4232540728189999e+01 5.8552028260069999e+00 1.0777959808289999e+01
98 2 1.5187550949449999e+01 6.7389028409150002e+00 1.2769756840230000e+01
99 2 1.3531238950580000e+00 1.6251495814929999e+01 1.4899738533520001e+01
100 2 3.4871085073630002e+00 8.2215549700989998e-01 1.4168094867280001e+01
101 2 9.9487176893010005e+00 2.3489365847829999e+00 5.6113730139730000e-01
102 2 1.1152279791480000e+01 2.9614428845630001e+00 2.4525263361060001e+00
103 2 6.4718771753439999e+00 3.3216476928910001e+00 2.2316985778239999e+00
104 2 4.2242939493320000e+00 2.6998470004519999e+00 2.0231013898860000e+00
105 2 7.7214544982020001e+00 1.4992005732310000e+01 9.0027616040759995e+00
106 2 6.6900586466350003e+00 1.3757396648769999e+01 1.0694855210040000e+01
107 2 1.4549980870720001e+01 9.3358783792699995e+00 8.3163092505409999e+00
108 2 1.9796398866289999e-01 8.8776560850260005e+00 9.6736517650210008e+00
109 2 9.1377163784669992e+00 1.0584249570590000e+01 1.3519176845670000e+01
110 2 8.3599208300509993e+00 1.2725673946720001e+01 1.2877009167110000e+01
111 2 1.0441800510150001e+00 6.0462567407499996e+00 3.8028952516620000e+00
112 2 1.4315934766189999e+00 4.4077916457819999e+00 5.4245870738709998e+00
113 2 1.0110242059890000e+01 1.5325878480860000e+01 1.3520030512020000e+01
114 2 8.4721434966100002e+00 1.5898255572680000e+01 1.5071572190410000e+01
115 2 1.2833115351280000e+01 -2.0870256917739999e-01 1.5112891672120000e+01
116 2 1.4320579710920001e+01 1.3624891187879999e+00 1.4256299077130000e+01
117 2 1.2191129491040000e+01 1.2040013809630000e+01 1.3883233654740000e+01
118 2 1.3204797290929999e+01 1.3330782837490000e+01 1.2200804706170000e+01
119 2 1.3129400940540000e+01 1.2235727809440000e+01 9.0001063508809995e+00
120 2 1.5309587854080000e+01 1.2631418904620000e+01 9.7219800444980002e+00
121 2 1.3713375196070000e+01 2.6336396220079998e+00 1.0393691837550000e+01
122 2 1.4216130626200000e+01 2.6251437909540001e+00 8.0710593407070004e+00
123 2 4.8880277105010004e+00 1.4116305729950000e+01 2.6063950243890002e+00
124 2 4.3304829817700004e+00 1.5962070980449999e+01 1.2146506937310000e+00
125 2 3.1784344291530000e+00 7.6514924063230003e+00 5.3420015353619998e+00
126 2 5.4776498827940001e+00 8.1098049753750008e+00 5.3051833239299997e+00
127 2 5.4608069997320001e+00 1.1717752952180000e+01 5.0475763202600001e+00
128 2 6.4058048380769996e+00 1.3784108157450000e+01 5.4646689569489997e+00
129 2 9.9942285786720007e+00 4.2598956430039996e+00 1.1521694318860000e+01
130 2 7.7407726343720000e+00 4.3996464814939999e+00 1.1101015989000000e+01
131 2 1.3822712230500001e+01 1.3088735979830000e+01 7.6209294402810002e-01
132 2 1.5066483496900000e+01 1.2893117183610000e+01 1.4911879990739999e+01
133 2 4.4261883612800004e+00 4.1465817682620001e+00 5.1931781286360001e+00
134 2 6.0579722306710000e+00 3.1449341532520001e+00 6.5284146529819997e+00
135 2 4.3097748155850004e+00 6.8962053700699999e-01 6.2954016000769997e+00
136 2 2.6309156725710001e+00 1.6007980464429998e+01 4.8985335414559996e+00
137 2 9.4692994809509994e+00 1.3013367221850000e+01 1.5542862477880000e+01
138 2 9.4898616467680004e+00 1.3905644189140000e+01 1.5475561094320001e+00
139 2 1.5761319089020001e+01 5.6327560035350004e+00 2.5991721808509999e-01
140 2 7.1736269628600002e-01 7.6188343383779999e+00 1.5946632128550000e+01
141 2 1.7454934569460001e+00 5.8869132506439996e+00 8.3726028626790008e+00
142 2 2.6624436440490001e-01 7.1311782224179998e+00 7.0995543286920002e+00
143 2 3.2887913894210002e-01 3.1231605136380001e+00 9.4518957191039998e+00
144 2 2.5397327599050001e+00 3.0685152186829998e+00 8.7294417105080004e+00
145 2 1.1369657281440000e+01 2.0287727230039998e+00 1.3078109237170001e+01
146 2 1.0903738080440000e+01 1.5887660820380001e+00 1.0801003228460001e+01
147 2 3.7437018559120001e+00 3.7441751978569999e+00 1.3447949299310000e+01
148 2 4.5583491693170002e+00 5.1758881834919999e+00 1.5038974372880000e+01
149 2 1.0193879122940000e+01 8.0737182847159996e+00 9.5975685797269996e+00
150 2 1.2445215257250000e+01 8.2362735388039994e+00 9.9491955653460007e+00
151 2 7.4881160903220003e+00 5.5180071897039999e+00 1.1863596018900000e+00
152 2 8.2078799289140001e+00 4.8280009251380003e+00 1.5243414834170000e+01
153 2 8.5115159221730003e+00 2.4725925886660001e+00 9.1081854690479993e+00
154 2 7.1158143394089999e+00 1.2242589551030001e+00 1.0572146545380001e+01
155 2 4.8642463293329996e+00 1.1035207620150000e+01 1.2574805338419999e+01
156 2 3.6271817878819999e+00 1.1578782922629999e+01 1.0625668805409999e+01
157 2 1.3394823933540001e+00 1.2557414868960000e+01 1.5630273803740000e+01
158 2 3.5950782855940000e+00 1.1924455736970000e+01 -2.3760372960340001e-01
159 2 2.7412587841740002e+00 1.2591771837970001e+01 4.1707434583090004e+00
160 2 2.7339486116680001e+00 1.0694944488479999e+01 2.7012068157839999e+00
161 2 1.1406915849100001e+01 1.2297906620830000e+01 3.9069748243450002e+00
162 2 1.3331077888579999e+01 1.1062484398240001e+01 4.4830046496070004e+00
163 2 6.4593748572270000e+00 1.1669671657640000e+01 1.6266125259790002e+01
164 2 5.9950242934220004e+00 1.3699661055030001e+01 1.5215572970540000e+01
165 2 1.3532344544890000e+01 2.3205937014439999e+00 5.1232653134959998e+00
166 2 1.4081937535170001e+01 3.5906015452290001e+00 3.2726066836880001e+00
167 2 4.5591777885050000e-01 3.8319921128929999e+00 1.3978325261529999e+01
168 2 4.7944814851500001e-01 2.0323189198009999e+00 1.2491107971190001e+01
169 2 5.3437847706410002e+00 5.5379409208299997e+00 8.4881372423919998e+00
170 2 4.2910185651879997e+00 5.0364062406279997e+00 1.0531814349910000e+01
171 2 1.2483447364120000e+01 3.8317393488070000e+00 1.5798341422889999e+01
172 2 1.1751375046000000e+01 5.4082077741220003e+00 1.4283455868050000e+01
173 2 8.6215139863919994e+00 8.5097708676590003e+00 1.7753182391869999e+00
174 2 8.0037675101960009e+00 1.0692326558500000e+01 2.4201600298810000e+00
175 2 6.7992782163050003e-01 1.0275041185590000e+01 1.3555343403500000e+01
176 2 1.4989820097979999e+01 1.0262480975990000e+01 1.2194510518660000e+01
177 2 1.5697995008990000e+01 1.3082172276300000e+01 5.0669007714500003e+00
178 2 1.5279432385290001e+01 1.4497586437540001e+01 3.2172343663260001e+00
179 2 3.2250191490950000e+00 8.9757511512170005e+00 1.0237544172250001e+01
180 2 2.6043927816990000e+00 9.7133609489719994e+00 8.0983487757660004e+00
181 2 4.4820399376070004e+00 1.4425187438889999e+01 1.2617474265049999e+01
182 2 6.2756489659370001e+00 1.5929768190680001e+01 1.2970287757150000e+01
183 2 3.8747531780440001e+00 6.8218965981580002e+00 1.4843882635660000e+00
184 2 5.7187325118569996e+00 8.2981216186870004e+00 1.0456883809280000e+00
185 2 3.8673959431589999e+00 8.8661820118150008e+00 1.5193768129140000e+01
186 2 3.0549206464420000e+00 7.5186259107489999e+00 1.3399327986930000e+01
187 2 1.1215359313040000e+01 1.5459378234780001e+01 3.9526450234890000e+00
188 2 1.1637193571030000e+01 -1.5262805625699999e-01 1.7333650327260000e+00
189 2 1.2189497714530001e+01 8.4251122470639999e+00 1.2894703716960001e+01
190 2 1.1172547011920001e+01 8.3564680338780004e+00 1.5006474563159999e+01
191 2 1.1255730492350001e+01 3.8120404803799999e+00 8.1229096513210006e+00
192 2 1.1790596322150000e+01 5.2316109076500004e+00 6.2921629907729999e+00

Velocities

1 2.9474944116520002e-01 1.4154310360110001e+00 5.9618713610100005e-01
2 -4.0688692406339999e-01 -2.0942379918529999e+00 -1.5635118063630000e+00
3 -1.2427601435480000e+00 1.0564460642419999e+00 -5.6548055231509997e-01
4 -3.8467022218790001e+00 -4.4817493074220000e-01 2.4242159327740000e+00
5 3.0157869914400002e+00 1.7058331337540000e+00 2.1829527926160002e+00
6 2.0923329732070002e+00 3.9002258325070001e+00 4.1472915869530000e+00
7 -7.0610789910350000e+00 -2.7069180645410000e+00 -3.3654565744310000e-01
8 -2.8090249307750002e+00 3.9875013397210002e+00 1.8727449201540001e+00
9 -1.1959919303150000e+01 -5.5999265242889997e+00 -2.6486004090870000e-02
10 -8.1902203766439996e+00 -1.9835892728730000e+00 -2.4054150393680001e+00
11 8.1895641903930005e-01 8.0555017828679998e-01 1.6407537406870001e+00
12 -6.1919007426950001e+00 8.0857633635480006e+00 -1.6795109248930000e+00
13 1.8884251924150000e-01 -7.6687137320929999e+00 8.3476447816870003e+00
14 6.4826080281470002e+00 7.4071704956600004e-01 7.1049213892800001e-01
15 8.2753602578759999e-01 -1.1776162213650001e+00 2.7317173823070000e+00
16 -8.7465519470330003e-02 3.4630390937479998e+00 7.8104499943630001e-01
17 -6.5653147151169999e-01 5.6108659984270002e+00 -8.6869794684279995e+00
18 -7.3139378971479996e+00 8.6582194301920001e+00 -5.0470436278279998e+00
19 4.2741753616559999e+00 -1.0999860606370000e+01 -1.0532553154740001e+00
20 -1.5452293627689999e+00 -1.0290268055149999e-01 2.5042082698580002e+00
21 -4.4238736387270000e-01 5.4302481663080000e+00 -3.9507122190990001e+00
22 2.7372612561860001e+00 1.1561464525039999e+00 2.8951667785519999e+00
23 5.8243880023840000e-01 8.3164527086709992e+00 5.6554378175890001e+00
24 8.9250548077899996e+00 -1.0257220309080000e+00 4.0092228689470000e-01
25 -2.1159786100179998e+00 -1.8629172176519999e+00 4.2810067416530001e-01
26 3.6108738041269999e+00 -8.9255570963570001e+00 1.5951806185480000e+00
27 4.6573769893110001e-01 -1.8193105318260001e+00 4.3907964696909998e+00
28 -1.5132655140769999e+00 1.0087753442790000e-01 -2.3240021302940002e+00
29 7.5800333538200002e+00 -7.6939705254639996e+00 2.4178398667340000e+00
30 9.1750314997869997e-01 9.8506343049680005e+00 4.3283266205500004e+00
31 -7.9124501231869999e+00 -3.6065931948799999e+00 7.3957502224680001e+00
32 1.7743024847860001e-01 4.9185051347569999e+00 1.3149303075680001e+01
33 3.6656914939649998e+00 -2.4717721310830001e+00 1.9578743214679999e+00
34 -6.7036656403909998e+00 5.4207110996879999e+00 -1.1386424881540000e+00
35 -4.7697229251520001e-01 1.0111383746750001e+01 4.8598115209510001e-01
36 1.2139234757940001e+00 -6.3192574178419996e+00 9.0385550559910008e+00
37 4.7242294143489998e+00 6.5771461387870001e-01 3.1414989166820000e+00
38 -6.8004970958940003e+00 2.0972986692640001e+00 -1.5669973201459999e+00
39 1.9264489868679999e+00 5.6269724930149998e+00 -4.6979031924200001e+00
40 -7.7727459970129997e+00 -5.8044445415570003e+00 -6.7869354271500004e+00
41 -5.5887934014470000e+00 3.0987467890070000e+00 8.3134697113169995e+00
42 8.2445858506210001e-01 -7.8088415096440000e+00 -5.9268995358899996e+00
43 -5.3766739957240004e+00 3.3559309796429999e+00 1.1842029866399999e+00
44 -3.9313551505920001e+00 -2.0985832605480002e+00 5.0713779081160002e+00
45 -5.8028805677410000e+00 -7.4442590930620001e-02 6.9142242225430000e+00
46 3.2526356662459999e+00 -4.1710746520180004e+00 1.7977710702809999e+00
47 -7.4934515894639997e+00 3.0694593187420001e+00 -5.3043891770859997e+00
48 -1.0361539654180001e+00 -2.7273740643650002e+00 -1.3116896417949999e+00
49 -3.6392560303290000e-01 -1.5310306450250000e+00 -1.2458632499980000e+00
50 4.5200354315339997e+00 -4.3436525095610001e+00 1.3377403623419999e+00
51 -2.0469929843400001e+00 -9.8511284689839995e-01 9.7353618170579992e+00
52 5.0064264886669996e-01 -3.2371715062800002e+00 6.0784349973550000e-01
53 8.9137326120750000e+00 -5.3999315623089998e+00 -2.4937386396590000e+00
54 -5.5326503782290004e+00 -1.4549866247650001e+00 1.7818495499260001e+00
55 -3.7184509827580001e+00 -3.6610210447629998e+00 5.8677367682839998e+00
56 3.9996699232630002e+00 1.7115482763800001e+00 -1.4573271088169999e+00
57 1.5357580648939999e+00 -1.5218028766509999e+00 -6.5736531349599998e+00
58 -2.3374732833340000e+00 4.3517937631450003e+00 -3.3490062226480002e+00
59 -2.6724275237859998e+00 1.8440656015810000e+00 1.6121195730330000e+00
60 9.0442777402149996e+00 1.6739591998720001e-02 2.1427789720920001e+00
61 3.3636931667519998e+00 6.0041006972550004e-01 3.5792804663880000e+00
62 2.2051171482840002e+00 2.5559359709330001e+00 -1.2144155278160000e+00
63 -3.0974988861180002e+00 5.1138231657639999e+00 -2.2352181351430001e+00
64 1.2294385951700001e+01 -4.7342182667449997e+00 1.0409693293160001e+00
65 4.1960833068749999e+00 -6.6110162539069997e+00 -4.7621578887189999e+00
66 -1.8512370386720001e+00 -2.4578696182100002e+00 3.2572911307600001e+00
67 -8.5062442127709996e+00 -3.8560310858230000e+00 1.8595925112650000e+00
68 5.3286148808110001e+00 1.5426064300969999e+00 -1.4735258833880001e+00
69 -1.1470584755930000e+00 6.0007982519379999e+00 -6.9157284261659999e+00
70 7.0670120528989999e+00 5.3592759906360001e+00 9.8467566796469994e-02
71 2.1588811016660001e+00 2.0337090346269999e+00 -4.3809384438230001e+00
72 -3.5239460225129999e+00 -2.1351609316269999e+00 1.3769206942450001e+00
73 -1.0701666269460000e+00 6.6050211819809999e+00 -6.4087701357749998e+00
74 -4.2495523614520003e+00 3.3401488597880000e+00 -3.1216556022550002e+00
75 -6.1737191146189998e+00 -5.9560482810359998e+00 -4.2723584747399999e+00
76 -5.8151265215360004e-01 2.9556450156679999e+00 5.2545074497810003e+00
77 -7.4192296781440001e+00 -3.4686224137899999e+00 -3.9208194389669998e-01
78 -7.9954573281579999e-01 6.0186078031539996e+00 -2.6172981686750001e+00
79 1.2440671108940000e+00 -3.9921535214380000e+00 -1.4647661255069999e+00
80 9.4925182577830007e+00 -6.4466258797639997e-01 3.5729932504580000e+00
81 -9.5664333005830002e+00 2.0242402351809998e+00 -6.4164189703980004e+00
82 -4.8904621287819996e+00 2.4305284639620002e+00 7.3512692542830005e-01
83 7.0150281281170002e-01 4.8571224217560003e+00 1.3791181899239999e+00
84 7.5023626461850004e+00 1.1000038503700001e-01 1.0624365831800000e+00
85 -1.0189508338669999e+00 3.5338025346010000e+00 4.6343056021319997e+00
86 1.1009830238660001e+00 -4.8985680880359999e+00 -6.1027122982980000e+00
87 3.9854021134100002e+00 -2.8176056531340001e+00 -4.2706000540420002e+00
88 -1.2226228995430000e+00 2.7871544345670002e-01 -3.5017067115590002e+00
89 4.5534911088559998e-01 -1.0743532535070001e+01 -4.7748223004239998e+00
90 3.8400346359260000e+00 5.9784386737180002e+00 9.4154015265400002e+00
91 1.8854024470880000e+00 -3.0103316773610000e+00 -3.6609346088070001e+00
92 -1.8322518750910000e+00 -1.4288955016139999e+00 1.3385873023070001e+00
93 -2.5172879623180000e+00 -5.6523480740550003e-01 -1.9930358564730000e-01
94 -3.1227322780279998e+00 5.6738462267540002e-01 -6.0234711335349997e+00
95 4.4131259775200000e+00 2.4206092493760001e+00 -8.2438674693850000e+00
96 -1.9407405866350000e+00 -8.9546966185810000e+00 2.9360410253490001e+00
97 -6.8103422092630002e+00 1.6521847948900001e-01 -4.0046459148669999e+00
98 3.9456552381140000e+00 2.3325290960750000e+00 -1.6668890389790001e+00
99 -2.7991628436270002e+00 3.0825972878079999e+00 -9.9181988126569998e+00
100 1.2634428638949999e+00 1.5535252201430001e+00 -8.5777732230909998e-01
101 1.0520244745889999e+00 1.6497692545900000e+00 2.1963359009310000e+00
102 1.0889251218100000e+00 -6.6495902040710000e+00 -5.7211315860580003e-01
103 -2.1510750835360000e+00 -1.9741937906639999e+00 -2.0823150704200000e+00
104 -8.0614779017929994e+00 5.2014196751419997e+00 -1.2702839734150000e+00
105 -6.3158771702880001e-01 -2.2358339609079998e+00 -4.3631394627780002e+00
106 -5.3687812520820000e+00 -4.2704161786560002e+00 -3.1042456805050000e+00
107 3.0531820138949999e+00 3.8215642734910000e+00 -6.7456510913269996e-01
108 -6.9632667023029997e+00 9.0053078442330003e-01 5.4202791282040002e+00
109 1.5630235423209999e+00 -4.2436504052690003e+00 1.3760344949690000e+00
110 -4.3550785847779999e-01 3.4104964022480000e+00 3.2287978004309998e+00
111 -7.6927080301209996e+00 2.0940838382579999e-01 -4.0566848130229998e+00
112 3.4876469907829999e+00 5.0322150657140003e+00 2.3467282238060001e+00
113 -2.6050398286259999e+00 1.6169541445830000e+00 4.9903786077600003e+00
114 8.0755029212109992e+00 1.8948960065010001e+00 -1.6014497414980000e+00
115 3.8377057005349999e+00 -3.4597119839610002e+00 -2.0029882917260000e+00
116 -4.9018928378939997e+00 -4.1899164712269998e+00 1.9009845413410000e+00
117 -1.1396826023800000e+00 3.3368543319369999e+00 -7.0890834482840004e-01
118 1.7769111332029999e-01 1.1555947188060001e+00 7.1865152242899999e+00
119 1.6670932665820000e+00 7.7075615566430002e+00 2.2120259314810000e+00
120 1.6648632406250000e-01 -3.1370805063340002e+00 -4.3867748298320004e+00
121 -2.2140471522979999e+00 1.5120774749779999e+00 -1.9976987562690001e+00
122 -5.2502496196339998e-01 5.8685510003849997e+00 -1.0024035026350001e+01
123 3.9371772109599998e+00 1.3428890036490000e+00 -4.7583298203960001e-01
124 2.1625814883819999e-01 -1.6258301963680000e+00 -2.3908283197019999e+00
125 9.9921675563040002e-01 -4.6048158376029997e+00 3.2985722953160002e+00
126 -1.4991095850520000e+00 -2.3090097800440001e+00 -4.3833864473540002e-01
127 -1.9570466135889999e+00 -1.3974134682660000e+00 9.0644725014609995e-01
128 -5.5639944028850001e+00 2.1627129769100000e+00 4.6406929761659999e-01
129 -7.2326130108519999e+00 -4.8033125030589998e+00 -3.0521031399280001e+00
130 -1.3937164054500000e+00 -6.6481731831869997e+00 -4.2681827282059999e+00
131 2.9164510553910001e+00 2.0633262980080000e+00 -6.2041206947649998e+00
132 3.2848032724350000e+00 -2.6689353508650000e+00 2.8434552723960000e+00
133 -3.5252423680409999e+00 -2.0886697114150001e+00 5.0515201106029997e+00
134 5.5171068478749996e+00 4.5904910455529997e+00 1.7415160299550001e+00
135 -6.9767038583179997e-01 3.7777278841449999e+00 1.8372714010720001e-01
136 4.8811409148499996e+00 3.9426389685130001e+00 2.5394957982870001e+00
137 -3.5239611535419999e+00 -7.5073422950750004e+00 4.0614670389669998e+00
138 -5.4205313284740004e+00 -2.0150455639490001e+00 -1.0174287152499999e+00
139 6.6509934202800003e-01 -4.3380010480789997e+00 1.2846139196610000e+00
140 1.5140859345219999e+00 1.0971499349340000e+01 -2.6640885232780001e+00
141 8.7427106613869991e+00 7.1615606702879999e+00 2.2249019501750000e+00
142 -3.2619482854660000e+00 7.9175140010029998e-01 2.0009889155409999e+00
143 -2.8616417504039998e-01 -6.6767547036410002e-01 2.1200634484009999e+00
144 -4.9538785579790001e-01 -1.9270307107139999e+00 -1.6571138854570000e+00
145 1.0013000618850001e+00 2.0204770064040001e+00 3.6906188837810001e+00
146 -1.6851336570560000e+00 -1.6382087709519999e+00 -2.7799305990350001e+00
147 -3.5982841427309999e+00 1.9391988444279999e+00 2.9268061461600001e+00
148 7.7531330159940000e+00 -1.4507620657889999e+00 -2.0368578078100000e-01
149 -2.6428855064249999e+00 -5.9960563833730003e+00 2.6795424801959999e+00
150 2.9817657315880002e+00 1.1799785086150001e+00 -1.7145172315280000e+00
151 2.1360555084649999e-01 4.6701682424420001e+00 -8.9145243185099998e-01
152 1.8598822095059999e+00 2.6110044715940001e-01 5.8344449699830001e+00
153 5.8928910840519997e+00 -7.3875235056139998e-01 3.5922708722109999e+00
154 2.6977917061830001e+00 3.9180425537070001e+00 1.4216147712320000e+00
155 -1.6210938314240000e-01 -4.5040644578039997e+00 3.0336210669760000e+00
156 -4.0783955687919997e+00 -2.9185325209399999e+00 4.0077405221940001e+00
157 1.6848244613670000e+00 8.4695015705559995e-01 -4.9882471593259998e+00
158 3.2391276872789998e+00 -7.0005987513489998e-01 -5.7064104030809997e+00
159 -1.0451254944510000e+00 -1.5478517178560001e+00 -4.0477914946259999e+00
160 -1.6519321245159999e+00 -3.5870845961989999e+00 -2.9721309550189998e+00
161 2.0339089078189998e+00 -2.2824899084160002e+00 -8.7915992453360001e+00
162 9.0597998612780000e+00 -1.8429237215920000e-01 3.6954773801590002e+00
163 -9.9788891040479999e-01 1.6773488343929999e-01 1.5727833208830000e+00
164 -4.8638893317490002e+00 -2.0922112078150001e+00 -6.4807094366440001e+00
165 7.2695655587500001e+00 -1.7559796932239999e+00 8.7756961169299996e-01
166 4.8267270338820003e+00 -5.2226074719540003e+00 1.9354354649800001e+00
167 4.7861364334149998e+00 8.3637583954199998e-02 2.9846426174970002e+00
168 6.6538892132029996e+00 4.7246163565819996e+00 3.1445582402230001e+00
169 6.4802471172420004e+00 2.6843340833720002e+00 -4.4121606292630000e+00
170 4.8041781301429998e-01 1.9457948870040001e+00 5.8816598873460002e-01
171 5.0636274736169995e-01 1.8958604533750001e+00 1.0137799506859999e+00
172 -1.3310693897340000e+00 1.3399567529009999e+00 3.1330197621500000e+00
173 1.5854221483290001e+00 -3.0593505549150000e+00 4.9026383626670000e+00
174 5.2240105991660002e+00 4.9904761917189999e+00 -3.0750059505010001e+00
175 -3.5552364466239998e+00 4.8464458170030000e-01 4.3322809018300001e-01
176 2.0912200262670000e+00 1.6070215784320001e+00 -3.1908747221090001e+00
177 3.5552619477770002e+00 3.4030152114129999e+00 -5.6703712169270002e+00
178 5.3955240418399999e+00 -2.9705140166690001e+00 -2.3232602237430000e+00
179 -4.0559089851019996e+00 5.0929622818039999e-01 -3.8738698579530002e+00
180 7.9320547288919996e-01 -2.8964978609030001e+00 1.9755119451280001e+00
181 6.6363405423739996e+00 8.1543566083610006e+00 -1.6004191888979999e+00
182 3.7420852245290002e+00 4.1066881606210002e+00 -4.9104522474009998e-01
183 -4.2781928698460003e+00 -1.3140969045680000e+00 6.8163008243199998e+00
184 -6.0799871783499997e+00 -1.3754717356740001e+00 4.9728110162740000e+00
185 -1.3731512062630000e+00 -1.0562052694349999e+00 2.8407219962740000e+00
186 -3.2043312012879999e+00 -9.7436322100920005e+00 4.8056704413120004e+00
187 8.0508209845400003e-01 4.5183784322399996e+00 4.2445225458550002e+00
188 1.5443396320580001e+00 -2.2500174384260001e+00 -2.3465102505740001e+00
189 -1.2051021327480000e+00 -6.0290890370500003e+00 -1.8543622049569999e-01
190 -1.3725528162389999e+00 1.5917203049890001e+00 -5.5809303757980000e-01
191 7.8378801033509999e+00 -8.3940737490640005e-01 3.5466252615939999e+00
192 -6.4794188145420000e+00 -1.9818461429220000e+00 -3.8512593325890001e+00
