LAMMPS data file extracted from NVT dump, timestep 780000, units metal

192 atoms
2 atom types

0.0000000000000000e+00 1.6195563468200000e+01 xlo xhi
0.0000000000000000e+00 1.6195563468200000e+01 ylo yhi
0.0000000000000000e+00 1.6195563468200000e+01 zlo zhi

Masses

1 12.00000000
2 16.00000000

Atoms # atomic

1 1 1.1407755362010001e+01 3.2554346362879998e+00 2.3483366090300001e-01
2 1 1.6109874383139999e+01 4.3796382920530004e+00 1.0834855139220000e+01
3 1 1.4977560502010000e+01 1.2421362011979999e+01 2.4482579606639998e+00
4 1 2.7370654111369999e+00 1.3532622700890000e+01 2.9638587883440000e+00
5 1 6.8740777626370004e+00 7.7928896329910002e-01 8.9786971972390006e+00
6 1 1.4796164100230000e+01 1.6660492631679999e+00 7.3953113026550001e+00
7 1 1.2832696562230000e+01 7.6938472683210000e+00 1.0963246137080001e+01
8 1 6.3548790556799997e+00 1.2606400616220000e+01 8.1014603544079993e+00
9 1 1.3801374419129999e+01 1.2111084219409999e+01 1.2721941215090000e+01
10 1 5.7859349598870002e+00 6.2954598554620000e+00 1.3582376421570000e+01
11 1 2.6509474718580002e+00 7.6303006876269999e+00 4.2675348105020001e+00
12 1 3.3572920271440001e+00 3.3427610826390000e+00 6.1866480334810001e+00
13 1 6.2808188719310003e+00 1.2357755870620000e+01 1.2602824972010000e+01
14 1 1.5472334583829999e+01 4.0162552172000003e+00 1.5114904270709999e+01
15 1 2.0813160615749999e+00 7.2411924360000004e+00 1.3178450330340000e+01
16 1 6.5002319527969998e+00 1.2874750091810000e+01 5.6246938172330001e-02
17 1 1.2582328295000000e+01 1.2972560703630001e+00 1.0809717649760000e+01
18 1 1.2906858938630000e+01 1.1288813892940000e-01 2.0389649610070002e+00
19 1 5.0185721404460004e+00 1.5744653081219999e+01 5.3278537387610001e+00
20 1 2.6144980378860000e-01 1.4765411061060000e+01 1.8867090762920000e-01
21 1 2.7511465967270001e+00 1.0344962342590000e+01 7.6913126715519997e+00
22 1 9.6696180885870007e+00 1.4429716232020000e+00 2.7572789437130001e+00
23 1 8.0565926247079993e+00 5.3267132884730000e+00 8.9178815743409992e+00
24 1 1.3161481402120000e+01 1.4485096961329999e+01 5.0501524030100002e+00
25 1 1.5639649132970000e+01 1.4644223661330001e+01 1.0457422266229999e+01
26 1 9.0209321511759999e+00 8.8263480270589998e+00 7.6518867769460002e+00
27 1 5.0415035370650001e+00 9.0273517690360006e+00 9.7387166686030007e+00
28 1 1.0884486233290000e+01 1.3449536332940000e+00 6.9419644210430000e+00
29 1 8.8519320453820001e+00 9.9879699252169996e+00 1.4816503617950000e+01
30 1 1.1045304498520000e+01 1.1488630701220000e+01 2.0278260499390002e+00
31 1 1.0988195998680000e+01 1.2126944306620000e+01 6.7092679442190004e+00
32 1 1.0317115057840001e+01 1.1336883210210001e+01 1.0705472551590001e+01
33 1 1.4563639675170000e+01 9.4561195156019995e+00 1.5727868245610001e+01
34 1 1.5381603495950000e+00 1.1811977578690000e+01 1.4838612733250001e+01
35 1 1.2526877836110000e+01 8.5757638687189992e+00 3.9072847873929999e+00
36 1 5.5581951744389997e+00 9.4878221530609996e-01 1.3692443970999999e+01
37 1 2.7161892451349998e+00 1.1788713445140000e+00 8.7900654396639997e+00
38 1 3.9369502106060001e+00 5.4921850947679995e-01 1.2703823961480001e+00
39 1 8.5316681261759997e-01 1.4100791330450001e+01 7.3128826859569998e+00
40 1 1.4990726100640000e+01 1.0698568946709999e+01 6.6296078940939998e+00
41 1 4.1346243183820004e+00 3.5875192715650002e+00 1.1853580528529999e+01
42 1 1.1827165178340000e+01 5.5960430414970004e+00 7.6313098717210002e+00
43 1 2.3965988368170001e+00 5.8787766306320002e+00 9.1574376897699992e+00
44 1 1.0676123260610000e+01 1.3881668901490000e+01 1.3412930179530001e+01
45 1 5.6482993761460003e+00 8.4980410734920007e+00 6.2024075272349997e+00
46 1 8.6070392159360001e+00 6.9630473525959999e+00 1.1850257214310000e+00
47 1 1.5957182209160001e+01 6.8551231052930000e+00 3.1258596091180002e+00
48 1 9.9911522999740008e+00 1.4535646687310001e+01 1.0130880133880000e+01
49 1 -5.8104717675799998e-03 9.0490771058859991e+00 1.0740977073400000e+01
50 1 1.2813269023959999e+00 7.7875453797469996e-01 1.3416226371100000e+01
51 1 4.1235373914429996e+00 1.0047067687449999e+01 1.4910751307360000e+00
52 1 5.7713618001159999e+00 3.2620057125950002e+00 3.3247685419869999e+00
53 1 8.8950607882109995e+00 1.2797254541859999e+00 1.1984840022400000e+01
54 1 1.5974354867720001e+01 1.9197761217970000e+00 4.3068431045350000e+00
55 1 1.5453387203940000e+01 7.2167572089899998e+00 7.2584996488600000e+00
56 1 3.3818737915080002e+00 1.3376711235540000e+01 9.8466742624039991e+00
57 1 1.2288705605870000e+01 1.0049836787960000e+00 1.4593105124779999e+01
58 1 8.9601157875429998e+00 4.9463247719750001e+00 5.0668132618580000e+00
59 1 8.1741985096870007e+00 1.4125811301170000e+01 4.1230050387470003e+00
60 1 3.4033196731760000e+00 4.5696607308969996e+00 6.9704017901979998e-01
61 1 1.1029753269200000e+01 4.7568756663840004e+00 1.2996695304119999e+01
62 1 1.2592243757800000e+01 4.6222893088869998e+00 3.8494763648590000e+00
63 1 8.6451858956710002e+00 8.0191772326869994e+00 1.1587352407370000e+01
64 1 1.2035499880820000e+01 6.8406157633750002e+00 1.6124870705989998e+01
65 2 1.0617615217279999e+01 3.5454207314409998e+00 1.5623258556520000e+01
66 2 1.2097354408879999e+01 2.8538654688179999e+00 1.0849268098520000e+00
67 2 1.5973875473310001e+01 4.7255701282590001e+00 1.1924916163580001e+01
68 2 4.8906186683720002e-02 3.9495943797030000e+00 9.7586028706049994e+00
69 2 1.5098124617610001e+01 1.1248430350000000e+01 2.3540791750740002e+00
70 2 1.4784375771580001e+01 1.3567273490200000e+01 2.4007285461130001e+00
71 2 3.7293370447920000e+00 1.3766567988749999e+01 2.3855354631450001e+00
72 2 1.7259821856040001e+00 1.3286987974940001e+01 3.5327344574250001e+00
73 2 6.1543164489009996e+00 4.7564149275779999e-01 9.8509647700839995e+00
74 2 7.4588781199290004e+00 8.7798537346950001e-01 7.9867054242829996e+00
75 2 1.5902893985570000e+01 1.2855743256629999e+00 7.5055789304850000e+00
76 2 1.3723199677789999e+01 2.1374947774840001e+00 7.2973121272019998e+00
77 2 1.3023067361870000e+01 8.6314951208479993e+00 1.0319949573430000e+01
78 2 1.2791582808570000e+01 6.6545063315090003e+00 1.1541285019609999e+01
79 2 7.4498965543260001e+00 1.2238254649350001e+01 8.3866060721690001e+00
80 2 5.2153193860879998e+00 1.2862947003520000e+01 7.7682713262609999e+00
81 2 1.4653085008800000e+01 1.2637426824280000e+01 1.3376571492240000e+01
82 2 1.2990607161490001e+01 1.1496563650780001e+01 1.2132390996860000e+01
83 2 6.2415783332840000e+00 6.7808656809289998e+00 1.4523116861100000e+01
84 2 5.4528156848130003e+00 5.7613097708609997e+00 1.2592699744880001e+01
85 2 2.9614076501270001e+00 7.5253923618469996e+00 5.3994530847169999e+00
86 2 2.5744154190500002e+00 7.9844464520370000e+00 3.1562674932740000e+00
87 2 4.4922240688050001e+00 3.5427352423400000e+00 6.4389978472739999e+00
88 2 2.2774527837359999e+00 3.1760362347909998e+00 5.7463957172090003e+00
89 2 6.8788993456609999e+00 1.2527345538490000e+01 1.1615513167880000e+01
90 2 5.6241496380799996e+00 1.2128168431840001e+01 1.3543390658310001e+01
91 2 3.5652917704519999e-01 3.7926536759310001e+00 1.4893604379390000e+01
92 2 1.4369541203100001e+01 4.3288403123450001e+00 1.5245632537780001e+01
93 2 1.0924616358790000e+00 6.5688782292310002e+00 1.3317536040600000e+01
94 2 3.0693694112980001e+00 7.8422873898190000e+00 1.3094205249930001e+01
95 2 6.2190005247229996e+00 1.3927355429169999e+01 1.5842533672269999e+01
96 2 6.7441404645610001e+00 1.1766700541100001e+01 4.5465842078129998e-01
97 2 1.3078775725060000e+01 2.1555382755350001e+00 1.0143985379629999e+01
98 2 1.2263980498900001e+01 5.4439265786850000e-01 1.1633230694910001e+01
99 2 1.2001181080009999e+01 1.6198035130350000e+01 1.2963588737100000e+00
100 2 1.3775990481619999e+01 4.0506884028029999e-01 2.7653747764859999e+00
101 2 4.8235774864680003e+00 1.4640780972490001e+01 4.9841282003460003e+00
102 2 5.3077417881470002e+00 6.1114502569749996e-01 5.7975204493270001e+00
103 2 1.5865851370120000e+01 1.4572576611710000e+01 1.5393545153090001e+01
104 2 9.1078785372979998e-01 1.4968227542270000e+01 1.1224741287360001e+00
105 2 2.5612044670310001e+00 9.2542102098299992e+00 8.0942233811790008e+00
106 2 2.7496888553290000e+00 1.1450126317400001e+01 7.3579247703209996e+00
107 2 9.2444242737880007e+00 2.0557608036150001e+00 1.8462674027170001e+00
108 2 1.0014453431130001e+01 8.5038219205370003e-01 3.6895711886610001e+00
109 2 9.0822191397019996e+00 4.8424899336139999e+00 9.2137256132249998e+00
110 2 7.0152221845279996e+00 5.8389365078040001e+00 8.6824088685749992e+00
111 2 1.4122972345490000e+01 1.4702503400760000e+01 5.6564026757689998e+00
112 2 1.2175358557710000e+01 1.4149963526510000e+01 4.4535843143139999e+00
113 2 5.4493200985589996e-01 1.4369059325429999e+01 1.0761522637340001e+01
114 2 1.4584764595830000e+01 1.5042856735279999e+01 1.0122644501750001e+01
115 2 8.2856888688969992e+00 9.4511552560729992e+00 8.2904190959809991e+00
116 2 9.8452469622029994e+00 8.2632399115619997e+00 7.0300720157700001e+00
117 2 5.4363413216590004e+00 1.0005905531330001e+01 9.2125367706569996e+00
118 2 4.6438715453530000e+00 8.0633018476630003e+00 1.0218712010390000e+01
119 2 1.0366836096049999e+01 2.2784700785640002e+00 7.4496415712879998e+00
120 2 1.1347296021000000e+01 3.5899842863920001e-01 6.5531741699039996e+00
121 2 8.2885445558959994e+00 1.0995719367880000e+01 1.4669965240750001e+01
122 2 9.3919118353559998e+00 8.9373923967939994e+00 1.5069022460690000e+01
123 2 1.0287730935870000e+01 1.0633424115060000e+01 2.3817487744000001e+00
124 2 1.1742109887530001e+01 1.2347098119030001e+01 1.6573185662200001e+00
125 2 1.1612849208109999e+01 1.3026694769910000e+01 7.1589306724229997e+00
126 2 1.0251735967540000e+01 1.1323436447670000e+01 6.2910849250589997e+00
127 2 9.9213386828349996e+00 1.1486167132340000e+01 1.1795219477060000e+01
128 2 1.0762637985400000e+01 1.1169915363539999e+01 9.6274065373750002e+00
129 2 1.4754249915859999e+01 8.3552369938929996e+00 -9.2510210548199995e-02
130 2 1.4427881051540000e+01 1.0524915929890000e+01 1.5241444717080000e+01
131 2 1.1610045954970001e+00 1.1075664881470001e+01 1.4016019451749999e+01
132 2 1.9364717869979999e+00 1.2595743826880000e+01 1.5656522179510000e+01
133 2 1.2495140819380000e+01 8.8497687614569998e+00 2.7678513002680001e+00
134 2 1.2541541709930000e+01 8.3321200250139995e+00 5.0667458036459996e+00
135 2 5.6472591267609999e+00 2.1342424024570001e+00 1.3940896141050001e+01
136 2 5.4089555602340003e+00 1.6022613964240001e+01 1.3331911396070000e+01
137 2 2.9271790614620001e+00 7.5367944457110003e-01 7.7532023085250001e+00
138 2 2.4580209554999999e+00 1.5462888828420001e+00 9.8933336814260002e+00
139 2 4.6930162966930000e+00 6.2571010314069997e-01 3.5091743409249998e-01
140 2 3.1338859522000000e+00 6.2835659516050002e-01 2.1381734994010002e+00
141 2 1.6090527003310001e+01 1.3630986663090001e+01 7.8359672447889999e+00
142 2 1.7691229471009999e+00 1.4622824229990000e+01 6.8002513218959999e+00
143 2 1.3878428848850000e+01 1.0944522989299999e+01 6.5143431396629996e+00
144 2 1.6091592920880000e+01 1.0372314429890000e+01 6.8727602487389996e+00
145 2 3.1170459681259999e+00 3.8055113871859998e+00 1.2376668797490000e+01
146 2 5.0611976754230001e+00 3.2947144440990002e+00 1.1192338309200000e+01
147 2 1.1777606789149999e+01 4.9434946458580002e+00 6.6759460553560004e+00
148 2 1.1943001361930000e+01 6.2405359472370003e+00 8.5666280857989996e+00
149 2 1.7128906441139999e+00 6.8403997614060001e+00 9.3364486240920002e+00
150 2 3.1195340329389998e+00 5.0118848864820000e+00 8.9026072290970006e+00
151 2 1.1777981408660001e+01 1.3584561337220000e+01 1.3464563909230000e+01
152 2 9.5364479309969994e+00 1.4116389287270000e+01 1.3212525084959999e+01
153 2 5.5535846016799999e+00 7.5853589630389999e+00 6.8671379975260001e+00
154 2 5.7388394513990004e+00 9.4297904718980003e+00 5.4780870291190000e+00
155 2 9.4262306774979994e+00 7.6972960317570003e+00 1.6007128184340000e+00
156 2 7.7682399605089998e+00 6.2313223996570004e+00 8.4810652235020001e-01
157 2 1.6112054037499998e+01 5.9014462365920002e+00 2.4777937677019999e+00
158 2 1.5845263838439999e+01 7.8692945095090003e+00 3.6484941439390002e+00
159 2 1.1046453368500000e+01 1.4057015192550001e+01 1.0316000266820000e+01
160 2 8.9539882624789993e+00 1.5034081352950000e+01 9.9890424259019994e+00
161 2 4.7419948723119998e-01 9.8612116237530003e+00 1.0057773268749999e+01
162 2 1.5690678109140000e+01 8.2187374719130002e+00 1.1375942572070000e+01
163 2 2.4650157405240001e+00 6.2808191440729999e-01 1.3402798695890001e+01
164 2 1.0656647153060000e-01 7.8234506448100005e-01 1.3293115301940000e+01
165 2 4.5153321198569998e+00 1.0016868030910000e+01 2.5900811767090000e+00
166 2 3.6389059015340002e+00 1.0057449540220000e+01 4.0525251697390002e-01
167 2 5.4110932420040001e+00 2.2875874416130002e+00 2.8413071270030001e+00
168 2 6.1305040677509997e+00 4.2264111704180003e+00 3.9460752831799999e+00
169 2 9.2491973188079992e+00 1.8853175837620000e+00 1.1052276767770000e+01
170 2 8.5382672577389993e+00 5.9872083501759998e-01 1.2843798457940000e+01
171 2 5.1553538385529996e-01 1.0604558846429999e+00 4.0451204670959999e+00
172 2 1.5161322622289999e+01 2.6436032843430000e+00 4.7523257821760003e+00
173 2 1.4828044872090000e+01 7.8666149773159999e+00 8.0331321284299992e+00
174 2 1.6003385669379998e+01 6.4891104362409999e+00 6.5342736603959999e+00
175 2 3.0990423537459999e+00 1.2251274313380000e+01 9.9728615980159994e+00
176 2 3.6197606989760001e+00 1.4526017655310000e+01 9.8018096681919999e+00
177 2 1.3468131793930000e+01 1.0425248684720001e+00 1.4598207487300000e+01
178 2 1.1152551412019999e+01 7.4849349414739996e-01 1.4652958400699999e+01
179 2 8.5210080863230004e+00 4.9938546850729999e+00 6.1492332327280002e+00
180 2 9.4148264794650007e+00 5.0783741163830003e+00 4.0029049934540000e+00
181 2 8.2554371350389992e+00 1.4247343914400000e+01 5.2719767541279996e+00
182 2 8.2677149874690006e+00 1.3976909219440000e+01 2.9730103112110000e+00
183 2 4.1603997796870003e+00 5.3596579301820002e+00 2.5051647018140000e-01
184 2 2.7734936003880000e+00 3.7373356756440002e+00 1.2351729463729999e+00
185 2 1.1820892046590000e+01 4.0208386806209999e+00 1.2486108394150000e+01
186 2 1.0228936622819999e+01 5.4643651468150001e+00 1.3460099413540000e+01
187 2 1.3442285377399999e+01 5.4743642186169996e+00 3.8681067527650002e+00
188 2 1.1715420868100001e+01 3.8975095851360000e+00 3.6486863673020000e+00
189 2 9.7792207444719992e+00 8.1883231952370004e+00 1.1503839619440001e+01
190 2 7.4876674897660003e+00 7.8199646795559996e+00 1.1514700099400001e+01
191 2 1.2023272912540000e+01 6.0901274378219998e+00 8.5073660606540003e-01
192 2 1.1954120539880000e+01 7.4496883702099996e+00 1.5151125668440001e+01

Velocities

1 -6.6662144916440003e-01 -1.1361261820060000e+00 3.0912398063039999e+00
2 -2.5627198736549999e+00 -2.4430013733450000e+00 -4.1650543502530004e+00
3 1.5717322911960001e+00 1.9357020696720000e+00 -8.9821296684010008e+00
4 7.6582587541939997e+00 -2.6830812768610000e+00 4.6040796864050000e+00
5 -8.1603338950750004e+00 -1.6056133783130000e+00 -1.4970877112400000e+01
6 -2.2574061987110001e+00 4.4015896400030003e+00 -2.1657106444030001e+00
7 2.4977680255679999e+00 -4.4965923236369996e+00 4.2453882212050003e+00
8 1.0576088059760000e+00 -9.2528406502940008e+00 1.0814528467530000e-01
9 -7.2243916755060003e+00 -1.7597293037340000e+00 -4.6041316344150003e+00
10 -1.6548318999580001e+00 -7.2498811535070002e+00 -2.2387360465359998e+00
11 4.5135798024620000e+00 7.9746270889499996e-02 -4.5664720050660002e+00
12 -1.4104647262359999e+00 2.9038814261460000e+00 2.2990277418649998e+00
13 -1.0694385594800000e+00 2.5384410905010002e+00 -1.6132612250800000e+00
14 4.3396216756720003e+00 1.3968242541090000e+01 6.1709409487500002e+00
15 -4.9552303193359998e-01 6.2640951817520003e+00 8.3804808775310002e-01
16 -5.1147534409850000e+00 6.1672062932070004e-01 9.5070760396599996e-01
17 7.3073180630580004e-01 -6.5421427212019996e+00 3.8444321165150003e-01
18 -5.0243165981870002e+00 -4.4271039012169999e-01 -6.3758942195530004e+00
19 4.1262824992900002e+00 -3.0912809712059999e+00 3.5188844308029998e+00
20 -2.3470622049990002e+00 9.4532296827929994e+00 -3.6259321166979999e+00
21 5.6495070699729997e+00 1.9172884324630000e+00 1.6880317224379999e+00
22 6.4013007881700004e+00 -1.2906973543950001e-01 8.7870585296490000e-01
23 4.0180199021750003e+00 1.1393390557670000e+00 -5.9859346525590000e+00
24 5.0243329189170005e-01 -2.9315851501229999e+00 -2.8907323305010002e+00
25 1.7347989417300000e+00 4.3294032605900004e+00 4.1784408317709998e+00
26 4.3876336760339996e+00 -7.0018931449629997e+00 3.6866049602850000e+00
27 -2.4072511166339999e-01 7.1619182684659997e+00 2.5896712606480001e+00
28 -2.2830906681370000e+00 4.1855315970760003e+00 2.5107796635500002e+00
29 2.8323377537229999e+00 -7.8387357085840002e+00 -3.3497084664679999e+00
30 -7.0605235878029999e+00 -1.3513692141980000e+00 4.2390470782380003e+00
31 -1.3614912531090000e+00 3.7148778834399998e+00 -4.5854260350939997e+00
32 4.6742422565980002e+00 -3.7788876490079998e-01 -1.8020984385520000e+00
33 1.5932833350230000e+00 -1.5330770903530000e+01 -5.6262083120459998e+00
34 3.1172658591440001e+00 8.5322287812709996e-01 -2.9561193499690002e+00
35 -2.5671271459250000e-01 2.6895347087379999e+00 -7.0893866603489997e+00
36 6.7738028779530002e-01 4.3679229507330000e+00 1.8051134414729999e+00
37 2.6254710633450000e+00 -5.7719201162590004e+00 -3.3474275304490000e+00
38 -4.0720551774339997e+00 4.7207489079730003e+00 4.8292971296680003e+00
39 8.2150382880119999e-01 -1.1217437280220000e+01 4.1866970171620004e+00
40 4.2963954425840001e+00 2.5475984644340000e+00 -7.4096744074820000e+00
41 -1.5833693403410001e+00 -3.0766142624950001e+00 -8.7738201775309999e-01
42 -1.1873893594200000e+00 4.5177428386900003e+00 -2.8487052740049998e+00
43 1.8035714776320000e+00 3.3756143569349999e+00 -5.6571676138980003e+00
44 -4.1833584663680004e+00 -4.7562369163079996e+00 2.7314681192269998e+00
45 1.8672657207829999e+00 -4.6389429437610001e+00 -1.7953404667070001e+00
46 -5.8500549933840000e+00 3.6052188949350001e+00 -2.6470581037329999e+00
47 5.7386683175669999e+00 -3.9280796717770001e+00 4.3377977702699999e+00
48 6.4481199305169996e+00 -1.7255159802790001e+00 2.4379443388210000e+00
49 2.0831318774179999e+00 1.7424037505500001e+00 3.3503861025389998e+00
50 -2.0667920347840001e+00 -1.5333113696550001e-02 2.9654090213950002e+00
51 3.1595842779479999e+00 3.4121379279889998e+00 -2.2827624199190000e-01
52 -5.5591205743060002e-01 7.7435742358530000e+00 9.1051888531300005e+00
53 1.7472956854199999e+00 -4.8422793711779999e+00 3.3859236643090002e-01
54 -5.5775397352490002e+00 6.1759151627490005e-01 4.2026440765419997e+00
55 -3.8352906248009999e+00 -2.6436177985609999e+00 -5.8231574235229999e+00
56 -2.6699970444829999e+00 7.5731459615640002e+00 -1.7841512396400001e+00
57 1.6922677219269999e+00 6.7987911859350003e+00 3.4088715824509999e+00
58 -3.6563003716229998e+00 -1.2064977868900000e+00 -2.2322017122240001e+00
59 5.6566116764979997e+00 2.2982043101820002e+00 4.9491930526690000e+00
60 -3.9464296673580002e+00 8.1120257216450007e+00 4.7665184750099998e+00
61 -8.6045909234389999e+00 6.1592502821580002e+00 7.8739792052929998e+00
62 1.7775940250940001e+00 -5.8030107655409999e+00 -2.5317930022159998e+00
63 7.5726944339889997e+00 5.1899619729540003e+00 2.2090455870119999e-01
64 -1.0395654893710000e+00 2.4782324386819998e+00 4.5406407409089997e+00
65 1.2440963152040001e+00 -1.9614218108429999e+00 5.6501244642670001e-01
66 -5.0919110793000000e-01 8.2727412918209997e-01 2.1195263768910002e+00
67 3.2902948303370000e-01 -7.5036840086570000e-01 1.7763975134859999e+00
68 -6.0368107792650005e-01 7.2688846299929999e+00 -3.4871296191769998e+00
69 -8.0659743538949993e+00 -1.4638182343730000e+00 1.9420297181699999e+00
70 -8.7979015025759999e+00 3.2336262983470001e+00 1.3242932231830000e+00
71 1.2351142444370000e+00 -1.5128298198470000e+00 -1.1573180300310000e+00
72 2.4889441634280001e+00 6.4053759671279997e-01 -4.7158211384850004e+00
73 7.8274902376610000e-01 2.8970234047879999e+00 2.5191166291129998e+00
74 3.2226696788889999e+00 -3.3454872725870000e+00 4.4722623715510004e+00
75 -2.2967791249989999e+00 5.5003189036100002e+00 4.8004728208230002e-01
76 3.7868374210539999e+00 1.8598765055330000e+00 -2.9632995310720001e-01
77 -3.1746301285500000e-01 -2.0272493868310000e+00 -1.4471517848290001e+00
78 2.8757410430129999e+00 1.1364745896270001e+00 1.3209972082450001e+00
79 -9.4267028063320002e-01 -4.3496320070359999e+00 9.7672801170150003e-01
80 1.8119263858720001e+00 -1.8546355067639999e+00 3.5140077852510001e+00
81 5.5786287328749999e+00 4.5957080330859998e+00 -7.0632639842269995e-01
82 6.0473371983449997e+00 -5.0534173859919997e+00 5.5769438672540002e+00
83 2.8399981350510002e+00 2.3562436479850000e+00 -2.7011098457839999e+00
84 1.8757750887860001e+00 3.0267714588149999e+00 -9.8339280497760004e+00
85 4.4599450614559997e+00 3.8211753913590001e+00 1.0547673784289999e+00
86 -1.3833123899180000e+00 6.0669692366410004e+00 -4.5460743285770003e-02
87 4.0123624615199999e-01 2.1929358520380000e+00 -8.2235082628760003e-01
88 -8.2323845763740007e+00 -6.8235830175099998e+00 4.9531605470070000e-01
89 3.8418367428100000e+00 4.4699871742020001e+00 1.0202863055670000e+00
90 -3.5013619728959999e+00 8.1661882550900000e-01 2.0674006024229999e-01
91 2.7002740326010000e+00 3.8238658030549999e+00 -6.8654801342280001e+00
92 8.2798630854809996e-01 -6.5417523855930000e+00 -2.9117032660300000e+00
93 -8.0525846862389994e+00 -1.3760622136520000e+00 2.8839704358999998e+00
94 6.3540864943909998e+00 8.9011179376960001e+00 -2.9842842218040002e+00
95 -4.8555115420529998e-01 -4.3145762173989999e+00 -3.6292378631319999e+00
96 1.1260705399619999e+00 -2.9843784153180000e+00 -7.3503328130729999e+00
97 -5.8101364914409999e+00 -1.7874847492060000e-01 -2.4947695497339999e+00
98 2.1276028171750001e+00 -6.0004905574930003e+00 5.4457627234950001e+00
99 -1.4230479245859999e+00 -2.8618205612910002e+00 6.0476774565009999e+00
100 1.0098150665320000e+00 2.0477101378599998e+00 -2.6042854229999999e+00
101 -2.3374008923380001e+00 5.0525821736549998e+00 -1.1048094862090000e+01
102 2.2791930143129999e-01 3.6773154160139998e+00 -4.4785773803459999e-01
103 -4.8379862548460002e+00 -3.4611831766890000e+00 -4.3335727763280002e-01
104 -1.8939971444140000e+00 4.3417765359349998e+00 -2.6252723874570001e+00
105 3.0235146647810001e+00 -2.3088725722369999e-01 1.1378861977479999e+00
106 -4.2178968261420001e-02 -6.3937055182320002e+00 2.1104890530320000e+00
107 -6.1412659372549996e+00 3.1506502752280001e+00 -2.8834446200350000e-01
108 -3.0375789911270001e-01 -2.7785713809139998e+00 5.3759896249760004e+00
109 1.8333917983200001e+00 7.6569466599540004e+00 6.9094348193060000e+00
110 7.6738343693610001e-01 -1.3139460705660000e+00 8.6355108975820005e-01
111 -8.2865193710780005e+00 3.2079259912209999e+00 -9.2935049709999995e-01
112 -7.1150469137920003e-01 7.4981614395819998e+00 9.3777904743629996e+00
113 9.6777120362430002e-01 -3.9631301221720001e+00 3.6083181493690000e+00
114 1.0953147608789999e+00 3.2427211926030002e+00 -2.0338652523869999e-01
115 3.1553355803860001e+00 2.0041903331349999e+00 2.5353794778790002e+00
116 -3.7879882467640003e-01 8.5669871207129999e-01 9.1490972001310000e-01
117 -2.9212627437830001e+00 1.4276655016799999e+00 1.1274842621379999e+00
118 7.1750356463660001e+00 -2.1329658516570000e+00 5.4441382528669999e+00
119 2.9613246270390001e+00 3.1173398827579999e+00 3.5590652809720003e-01
120 -8.3687183870509996e-01 7.4404097380319998e+00 5.4200593533240005e-01
121 1.5421074535210000e+00 -1.2742320143290000e+00 -3.2495400645329999e+00
122 -2.8028504839789998e+00 1.0252840091340001e+00 2.7855375582730000e+00
123 -7.3046544706380001e-01 -3.5918125505070000e+00 6.0489666675170000e+00
124 2.1712060983560000e+00 2.9792415105060002e+00 4.7375515924649996e+00
125 1.1447205090460000e+00 -1.3567638158790001e+00 -3.0846568554170001e-01
126 1.4320993730320000e+00 6.3383081344810002e+00 1.3250345135749999e+00
127 -6.4841716675320005e-01 3.7034414472510000e+00 2.7175667435660000e+00
128 -1.7907996350930000e+00 -3.6749959051259999e+00 1.3673223487460000e+00
129 -1.1813906103580001e+00 -5.1375671228120003e+00 -5.3680100136469999e+00
130 2.8687789167110000e-01 -2.8559798126280000e-01 3.6230706191820000e-01
131 -3.6550012812010002e-01 5.5665711079150004e-01 -5.3324199262520000e-01
132 1.9747434534120001e+00 -1.3588883362330000e+00 1.1807060847560001e-02
133 1.3053323139220001e+00 -1.3975914668049999e-01 -3.7619762679919999e+00
134 -2.4399098784729998e+00 -1.0393850350739999e+00 -2.5999007751879999e+00
135 4.6994067570080000e-01 3.4496784000220000e+00 -2.0130692182429999e+00
136 4.2422395343430003e-01 -2.3688302806510002e+00 -6.7974936692729999e+00
137 -4.9037317067319997e+00 -5.1158322605809996e+00 -2.5828067838680000e+00
138 3.1394063992899999e+00 -4.2012619878350002e+00 2.3406911437970002e+00
139 4.4823195353139997e+00 -2.8861785942879998e+00 8.4749143845749997e-01
140 2.4376245605259999e+00 -4.4910283580049999e+00 6.9402250239310004e-01
141 6.2053415345250000e+00 -1.4768936707410001e+00 -1.9587876115480001e+00
142 2.6256199307669998e+00 -3.4152077961200000e-01 3.1655815754669998e+00
143 1.9789011618630001e-01 2.4534277240660001e+00 -4.1251391032850000e+00
144 2.3726993147020001e-01 -1.1359161173150001e+00 -7.5457554481629998e+00
145 -3.6424562275339998e+00 7.6785211927840002e+00 -1.2427432992400000e+00
146 3.1674211539289998e+00 1.8967555864150001e+00 6.0558881032230003e+00
147 5.1294599763030000e+00 2.5448575890209999e+00 4.2328933760950003e+00
148 -2.8029227716820002e+00 -2.9435128883949999e+00 -6.8413212563789996e+00
149 -7.3045225208260001e-01 2.5273405563950000e+00 -5.6392853353570001e+00
150 -9.5840358346610000e+00 -8.4588008497110003e+00 -4.0438550105450002e+00
151 -4.9063266913529997e+00 -4.4917020600580004e+00 -4.7978993740779998e+00
152 4.0702311545900001e+00 4.5656272463390000e+00 -2.0396401250179998e+00
153 4.0129369998650004e+00 7.7955187641270003e+00 2.2009192557200001e+00
154 -5.6155921337960004e+00 -1.9099902617469999e+00 5.6138379355400003e-01
155 9.9071280722239996e-01 -6.2832302170089998e+00 3.2009526633040002e+00
156 8.3967614771440002e-01 -7.8292752499129996e+00 1.6222437528180000e+00
157 7.9201048658660000e-01 7.4200959076359996e-01 -2.8222256116550000e+00
158 1.5067155548950000e+00 -2.5432697475390000e+00 3.4760780030479999e+00
159 3.4284394416609998e+00 -4.2874719878079999e+00 -5.0027506892110001e+00
160 2.3889166130769999e+00 -7.7531785188819997e+00 -4.0626397339549998e+00
161 9.8650412489929995e-01 -6.1457511937230003e-01 3.5132409275110001e+00
162 -5.4996806255730002e+00 -5.7341680513900002e+00 4.3020660435059996e+00
163 -3.3711402235939998e+00 -1.9953192574720000e+00 -6.7444090158729999e+00
164 -4.7402474538549999e+00 -1.0464600223750001e+01 9.2178381658719992e+00
165 -7.3769740013289997e+00 -8.1390803802750000e-01 -1.3765499443650001e-01
166 2.9688921219500002e+00 3.2336485893510001e+00 -1.0429102393680001e+00
167 1.4313442075300000e+00 -3.2262605103789999e+00 2.4299988031209998e+00
168 2.1059015380730002e+00 3.5496922993669999e+00 -1.5479552692540000e+00
169 -5.3211403287560000e+00 6.0915901390879998e+00 -3.1432837597300001e+00
170 4.5614070736989998e+00 4.9354562326130003e+00 -7.7989617635409996e+00
171 6.2782507711679996e+00 -5.3413601164979996e-01 -3.9534482590550000e+00
172 -1.2131768868280000e-01 5.8099288153169999e+00 3.0265873675839998e+00
173 2.4162179675600002e+00 -1.1171154157930001e+00 2.4478537380679999e+00
174 3.0149806592530002e+00 6.5219637302739999e+00 7.5072040645360003e+00
175 -7.5473109824270002e-01 -1.9551672757709999e+00 -1.9501522167919999e-01
176 4.6386808804940003e+00 -1.4245837484690000e+00 -3.3512619230910001e+00
177 -6.9231541786980000e-01 -6.3591214687230000e+00 -2.6227254295770002e+00
178 -3.2881251494370001e+00 2.2986789305599999e+00 1.0854834209069999e+00
179 -2.5357330237200002e+00 -4.1862196905109998e+00 4.8683656277630000e-01
180 -3.6730343913499999e+00 1.6488219301830001e+00 3.0165391047950001e+00
181 -2.2991823185920000e+00 -3.8337745767740001e+00 4.4364892356689998e+00
182 -1.2792939654019999e+00 6.3104349394899995e-01 4.0050974864660001e+00
183 -1.8202426265780001e+00 -8.3368048270749995e-01 4.3347436475540002e+00
184 -2.6861144101610002e+00 1.3721877515890000e+00 3.8457332414779999e+00
185 -6.5112669930419997e+00 -8.6750971806720001e-01 3.2467365341979999e+00
186 1.7916692419239999e+00 -1.0572110099800001e+00 -1.0924454490180000e+00
187 -9.3817204721809999e-01 -9.7266844621990001e-01 -8.9511131282109992e-03
188 6.8737256028999996e+00 -2.6881991254459998e+00 7.4810037577300004e-01
189 -3.8994516003839998e+00 1.3128961709580000e+00 1.1282469386270000e+00
190 -3.0354385525100001e+00 1.8360291922150000e+00 2.9501640170850001e+00
191 1.4068625149250000e+00 -7.0917914891020004e+00 -3.1614436898410001e+00
192 -4.6651750305239997e-01 -3.4268920881390001e+00 -1.8051816139390000e+00
