LAMMPS data file extracted from NVT dump, timestep 1800000, units metal

192 atoms
2 atom types

0.0000000000000000e+00 1.6195563468200000e+01 xlo xhi
0.0000000000000000e+00 1.6195563468200000e+01 ylo yhi
0.0000000000000000e+00 1.6195563468200000e+01 zlo zhi

Masses

1 12.00000000
2 16.00000000

Atoms # atomic

1 1 3.6775170525470000e+00 1.0669403916020000e+01 1.1887126164380000e+01
2 1 1.1318662570400001e+01 1.6204013237199999e+00 5.7458173783250004e+00
3 1 1.6475891716340001e+01 1.2024790641419999e+01 1.0225104301789999e+01
4 1 1.4378130580890000e+01 7.8822502746350001e+00 5.9967398128080003e+00
5 1 1.0105991149910000e+01 1.2710342384690000e+01 1.4392175858340000e+01
6 1 1.6087520839920000e+01 1.1957898933239999e+01 6.7800654879779998e+00
7 1 1.6175550651559998e+01 5.0861482928050004e+00 9.1152238852780005e+00
8 1 2.4787843805679999e+00 9.4437198737300001e+00 4.6279355342719999e+00
9 1 9.4560498745749992e+00 2.4810454780870002e+00 8.8177684533789993e+00
10 1 1.1803711676460001e+01 4.8215480229020002e+00 1.8275213326980000e+00
11 1 6.5706243983799997e+00 1.2187889971090000e+01 1.5714754720749999e+01
12 1 1.0007660666640000e+01 1.5288803291220001e+01 1.0365920367150000e+01
13 1 1.0555938996680000e+01 2.6784263093599998e+00 1.3461603876120000e+01
14 1 1.4657725111540000e+01 5.4064509437190003e+00 1.2795580997269999e+01
15 1 9.1136959841500005e+00 1.5365071581410000e+01 3.0197443476729999e+00
16 1 7.7856671237919999e+00 8.7952635452219994e+00 1.3670450427290000e+01
17 1 7.3399353285090001e+00 7.1312357254240002e+00 1.7724459320629999e+00
18 1 3.6434243491760001e+00 7.8337592195439998e-01 8.7773329855090001e+00
19 1 1.4822044651210000e+01 7.4137876337010002e+00 1.5655539523410001e+01
20 1 2.3331799391820001e+00 8.5671282209819992e+00 7.9819214481080003e+00
21 1 3.2124257609870002e+00 6.1714649964700001e+00 1.2229799108990000e+00
22 1 1.1950009217860000e+01 5.4770562384860000e+00 8.2392425043949995e+00
23 1 5.2511410219680004e+00 5.3477341510649996e+00 9.2497872862909993e+00
24 1 9.2514210827240007e+00 4.6181558506000000e+00 5.2237225952140003e+00
25 1 5.6456516576159999e+00 1.0325638607160000e+01 3.5326575172969998e+00
26 1 1.1640857058520000e+01 9.4108275835379995e+00 1.2906204485649999e+01
27 1 4.7301461445859996e+00 1.5084487115080000e+01 5.0543527995430004e+00
28 1 2.2004524120690001e+00 9.8214042193809998e+00 4.5829459282809998e-01
29 1 2.5987395488990002e+00 3.9974829473710001e+00 1.4693057027589999e+01
30 1 1.5510251409509999e+01 4.2715423329649997e+00 3.1087424826549999e+00
31 1 7.4410317163229998e+00 6.2441151544399998e-01 1.5422086515349999e+01
32 1 -3.3629170566700001e-01 1.9808199451170001e+00 7.5241990468740001e+00
33 1 1.0482601589120000e+01 9.6212751373999996e+00 6.6860958463119999e+00
34 1 1.3071554182650001e+01 1.3966163811680000e+01 1.2868981115750000e+01
35 1 1.1557944631640000e+01 1.1847691518980000e+01 9.6988544660170000e+00
36 1 1.5815234316070001e+01 8.6327887640669996e+00 3.5145156623250000e+00
37 1 1.3933510904389999e+01 1.5724967578310001e+00 1.5692301653470000e+01
38 1 1.4620637954970000e+01 1.0524004657290000e+01 1.3540861592630000e+01
39 1 1.2425495009940001e+01 1.3278004000059999e+01 5.7183512859569996e+00
40 1 9.2591254573090005e+00 1.1243359391920000e+01 2.5875078914360001e+00
41 1 5.0017069330890003e+00 6.4180366747150002e+00 5.1132856601230001e+00
42 1 2.0853700002419999e+00 1.4937822909470000e+01 1.1363159225160000e+01
43 1 1.3919511245560001e+01 1.1405407593370001e+01 1.9977241253739999e+00
44 1 7.8061569468309999e+00 9.2441457823210005e+00 9.7732838143809992e+00
45 1 7.1057474789850001e+00 5.2880419549289996e+00 1.4421109839380000e+01
46 1 1.3984774204460001e+01 -4.6294805488260003e-02 1.0453274513889999e+01
47 1 7.5411325964899998e+00 1.2662072070840001e+01 5.8362921767420000e+00
48 1 1.0912835336810001e+00 1.4907649976109999e+01 3.2148700493450000e+00
49 1 6.5432943949459998e+00 2.7623273417970000e+00 2.2435706763779999e+00
50 1 1.4710669297300001e+01 8.0105840520000005e+00 1.0153442898530001e+01
51 1 5.9989303987689997e+00 1.3880195669320001e+01 1.0462482475170001e+01
52 1 1.0474779773520000e+01 1.7140893365650001e+00 1.1785040592089999e+00
53 1 1.1384060838320000e+01 6.0749404919770003e+00 1.4835495234950001e+01
54 1 5.9677012429239999e+00 1.5602845713910001e+00 1.1365445560970000e+01
55 1 3.1197361114579998e+00 3.7501262014779999e+00 6.1771222133880004e+00
56 1 8.9649798543789991e+00 5.4419226386100004e+00 1.0824773944370000e+01
57 1 1.8340497256830000e+00 1.3095445272070000e+01 1.4875815624840000e+01
58 1 2.3102475976429999e+00 3.3599298998750000e+00 1.1833866078380000e+01
59 1 1.3482086669479999e+01 -1.8493711155629999e-01 2.7969395258419998e+00
60 1 2.8179666603790001e+00 1.6275662176390000e+01 1.4908887409089999e+01
61 1 2.6585152699550001e+00 7.5949845234389999e+00 1.3205577126030001e+01
62 1 4.9213826311239997e+00 1.0579640556770000e+01 7.7239796739599997e+00
63 1 1.0942901491570000e+01 8.1691610651990008e+00 2.3666114077549998e+00
64 1 2.4248855781360001e+00 2.6931020637840000e+00 2.8659967216000002e+00
65 2 3.7634301369690002e+00 9.7017172812879995e+00 1.1279666605330000e+01
66 2 3.7604504600849999e+00 1.1674421051140000e+01 1.2539538679570001e+01
67 2 1.2392195080780001e+01 1.1463593063730000e+00 5.6875038300969996e+00
68 2 1.0165805861190000e+01 1.9249054946640001e+00 5.6860748627059996e+00
69 2 1.1301849169210001e+00 1.1955128518290000e+01 1.1028763678080001e+01
70 2 1.5527197831990000e+01 1.2196922646650000e+01 9.5399103104989997e+00
71 2 1.5305798134930001e+01 7.7913119826720001e+00 6.7074846676030004e+00
72 2 1.3369347131980000e+01 7.9708968985419997e+00 5.3975432210339997e+00
73 2 1.1100154095340001e+01 1.2864191891400001e+01 1.4947487313400000e+01
74 2 9.0660729640090008e+00 1.2451103276320000e+01 1.3852153783209999e+01
75 2 4.6607814963249999e-01 1.2993445815590000e+01 7.0254706004010004e+00
76 2 1.5471485374920000e+01 1.0972976485220000e+01 6.6019072700120001e+00
77 2 1.5061681480230000e+01 4.7980748913379996e+00 8.9474706046389993e+00
78 2 1.0887083440670000e+00 5.2842154226069997e+00 9.5220562583829995e+00
79 2 2.3750383036830001e+00 1.0509072756040000e+01 5.1042663713240000e+00
80 2 2.4636688033290000e+00 8.3243083461810006e+00 4.2990236840889997e+00
81 2 1.0601473046120001e+01 2.4126962717970000e+00 9.0205817285169996e+00
82 2 8.3177185585629996e+00 2.4323878375410000e+00 8.5424129514330005e+00
83 2 1.0821605843300000e+01 4.4291415103259997e+00 1.3157868227200000e+00
84 2 1.2793800618450000e+01 5.2548634460999999e+00 2.2749760157869998e+00
85 2 7.0803940609920000e+00 1.2479475947850000e+01 5.0830117414220000e-01
86 2 5.8764952601960001e+00 1.1887363545880000e+01 1.4814942483179999e+01
87 2 1.0275839642919999e+01 1.4520752783040001e+01 9.4855629258610001e+00
88 2 9.8969842754819997e+00 2.9702648324260000e-04 1.1095898348680000e+01
89 2 1.1480314614870000e+01 1.9756885574600000e+00 1.3226763701970000e+01
90 2 9.6148218763590005e+00 3.3499205458820001e+00 1.3672959353080000e+01
91 2 1.3541682297380000e+01 4.9690669515260000e+00 1.2726978158000000e+01
92 2 1.5701789069020000e+01 5.8398689668730004e+00 1.3083706449310000e+01
93 2 8.7461774725429997e+00 1.4974461741560001e+01 2.0035475884920002e+00
94 2 9.5192845655700005e+00 1.5566478918770001e+01 4.0985038482569998e+00
95 2 7.0659663003700004e+00 8.1332932100720008e+00 1.3049743192459999e+01
96 2 8.5364012272059995e+00 9.4278239953210008e+00 1.4299439130180000e+01
97 2 7.2192958491420001e+00 8.1768502448560003e+00 1.2084380841730000e+00
98 2 7.4154073729520000e+00 6.1527272593199998e+00 2.4026801145709999e+00
99 2 4.4747581703090002e+00 4.8283789581820002e-01 8.0116290973519995e+00
100 2 2.8361215685330001e+00 1.1803523949410000e+00 9.5452456696929993e+00
101 2 1.5917882572680000e+01 7.2954267261389996e+00 -1.4363084887970001e-01
102 2 1.3753047638220000e+01 7.4607093990550002e+00 1.5182469255110000e+01
103 2 2.8817656035610000e+00 8.0288020001520000e+00 7.0890341919899997e+00
104 2 1.8217055033970000e+00 9.1883258581079996e+00 8.8599928989090007e+00
105 2 2.4017505869310001e+00 7.0068091046000003e+00 1.4270657583840001e+00
106 2 3.9777237361909998e+00 5.3078070513869999e+00 1.1084198224860000e+00
107 2 1.1912210245750000e+01 4.6957287533920002e+00 7.3412077610209998e+00
108 2 1.1967332441110001e+01 6.3296467965190004e+00 9.0225308135979994e+00
109 2 5.6990969305989996e+00 6.3880416233429997e+00 9.5839422925219999e+00
110 2 4.8293774357919999e+00 4.3090637525820004e+00 8.9012533609870008e+00
111 2 8.5582246677459999e+00 4.6560577428379997e+00 6.1567592885210001e+00
112 2 9.9248224864030004e+00 4.4266470296150002e+00 4.2565797151740004e+00
113 2 5.6183756490069996e+00 9.9605294546450001e+00 4.6635933383259998e+00
114 2 5.7228361771870002e+00 1.0763483670119999e+01 2.4689797647209999e+00
115 2 1.1755780197520000e+01 8.5464433214700009e+00 1.2116261605069999e+01
116 2 1.1565090004220000e+01 1.0210171153379999e+01 1.3719703568970001e+01
117 2 5.3028168530880002e+00 1.5757869319230000e+01 4.2081116313019997e+00
118 2 4.0321127429199999e+00 1.4420714439419999e+01 5.7383143156610004e+00
119 2 3.0933425878369998e+00 9.3181802168280008e+00 1.6059555484680001e+01
120 2 1.3596343113770000e+00 1.0383972858760000e+01 1.0703259952990001e+00
121 2 1.8822815539380000e+00 4.9265039429110002e+00 1.4650826301400000e+01
122 2 3.4616376169200000e+00 3.1749866322750000e+00 1.4787707385410000e+01
123 2 1.5180345669379999e+01 4.6730089607040002e+00 4.1673608418579997e+00
124 2 1.5848356872060000e+01 3.8589465452630001e+00 2.0633432191640000e+00
125 2 6.6380882646460000e+00 1.6055443996779999e+01 1.5054437628050000e+01
126 2 8.2396327760020007e+00 1.3596267692240001e+00 -3.2915580258810001e-01
127 2 -6.2099997260529997e-02 1.6592009963840000e+00 8.6458068506419998e+00
128 2 1.5606804056520000e+01 2.2077674053880001e+00 6.4024322900310002e+00
129 2 1.0050960444319999e+01 1.0740846726530000e+01 6.4908914917580001e+00
130 2 1.1041967922060000e+01 8.6186434359290001e+00 6.9429499503900001e+00
131 2 1.4034614632100000e+01 1.3308062602740000e+01 1.2973940692130000e+01
132 2 1.2054881651170000e+01 1.4553422173180000e+01 1.2786463605070001e+01
133 2 1.2476655895970000e+01 1.2213150038400000e+01 9.0815406588319991e+00
134 2 1.0722894755620000e+01 1.1490783970460001e+01 1.0435693298970000e+01
135 2 1.5646340004830000e+01 7.5015461066990001e+00 3.2610226086599998e+00
136 2 1.6019598975440001e+01 9.7510121257089999e+00 3.7201714934729999e+00
137 2 1.3964617762680000e+01 4.1303855035449999e-01 1.5836353027059999e+01
138 2 1.3782325772360000e+01 2.7434946322760001e+00 1.5650447412809999e+01
139 2 1.4503928871550000e+01 1.0494254133880000e+01 1.4718109662890001e+01
140 2 1.4713538817910001e+01 1.0600072451330000e+01 1.2341935585550001e+01
141 2 1.1902270917459999e+01 1.4203305662140000e+01 6.2047248591550002e+00
142 2 1.2792223200310000e+01 1.2265164683709999e+01 5.2118737040439997e+00
143 2 9.6751409150400001e+00 1.2248593658390000e+01 3.0234878222280002e+00
144 2 8.8242034561930005e+00 1.0192566767320001e+01 2.2371520945570000e+00
145 2 4.8070260288929996e+00 6.2958201263509999e+00 3.9425569004590000e+00
146 2 5.1637038652719998e+00 6.6062998213839998e+00 6.2308261724850000e+00
147 2 1.9344418744340000e+00 1.5421861895410000e+01 1.2427767659380001e+01
148 2 2.2031414373559999e+00 1.4412126433870000e+01 1.0312409142150001e+01
149 2 1.4389042449740000e+01 1.2450556144840000e+01 2.2494060835240002e+00
150 2 1.3528048403750001e+01 1.0295030803660000e+01 1.7803682383949999e+00
151 2 7.9807908164589998e+00 8.3133987129949993e+00 9.0854840197049995e+00
152 2 7.6390309786530004e+00 1.0258069293309999e+01 1.0354016906420000e+01
153 2 7.6856489390810001e+00 5.1684677045570000e+00 1.5446516594500000e+01
154 2 6.5707855391200001e+00 5.3712989628630003e+00 1.3407668337610000e+01
155 2 1.3076690017270000e+01 1.6501909427809998e+01 9.7881106525970001e+00
156 2 1.4916369411230001e+01 -2.1943304398149999e-01 1.1088762584450000e+01
157 2 6.9930026316029998e+00 1.2579540573350000e+01 4.7822088621390000e+00
158 2 8.1046437436830008e+00 1.2746102605870000e+01 6.8415918323850002e+00
159 2 2.2524067871289999e-01 1.5461906827569999e+01 3.8083221364650002e+00
160 2 1.9696650100460000e+00 1.4387942533660000e+01 2.6706243269569998e+00
161 2 5.6875560258110003e+00 2.4648938135909999e+00 1.4845012440690000e+00
162 2 7.3429745158510000e+00 3.0569602690940001e+00 3.0315292817509998e+00
163 2 1.5442346983520000e+01 7.1558324242050002e+00 1.0475827521090000e+01
164 2 1.3905216263490001e+01 8.7705494489740001e+00 9.7931934114449994e+00
165 2 4.9155785247789998e+00 1.3719482416340000e+01 1.0934737706200000e+01
166 2 7.1032753813339999e+00 1.4163492969030001e+01 1.0183625189410000e+01
167 2 9.7962055604849994e+00 1.8822138192800000e+00 2.1170799869739998e+00
168 2 1.1144100306550000e+01 1.5227822827840001e+00 2.4566484602700001e-01
169 2 1.1942465164950001e+01 5.1474837721669999e+00 1.5223745513780001e+01
170 2 1.0753422108020001e+01 6.8762086992829996e+00 1.4242845324259999e+01
171 2 6.3470824917559998e+00 2.2848347124410000e+00 1.2212324826870001e+01
172 2 5.7065038080779997e+00 6.2531569150510002e-01 1.0680092260910000e+01
173 2 2.4200824089260000e+00 4.6993142575469999e+00 6.2671745645170001e+00
174 2 3.8050639550750001e+00 2.8313951310980001e+00 5.9577320307379997e+00
175 2 8.6038590483749999e+00 4.9388638453520004e+00 9.8231692863940001e+00
176 2 9.4092935997749994e+00 5.8890042938429996e+00 1.1808135353170000e+01
177 2 2.6030774105840000e+00 1.3151964222140000e+01 1.5793169105970000e+01
178 2 9.8752574876370003e-01 1.3090405418910001e+01 1.4021853793060000e+01
179 2 3.4469356702670000e+00 3.5867348337510001e+00 1.1728959027729999e+01
180 2 1.1778533305470000e+00 3.1106765640899998e+00 1.1947391914710000e+01
181 2 1.3914462283710000e+01 8.8432905002920004e-01 2.8380250393830000e+00
182 2 1.3033160017649999e+01 1.4898640962840000e+01 2.9044782811649998e+00
183 2 1.7568280972770001e+00 4.7855993674359998e-01 1.5210860793349999e+01
184 2 3.8442273568020000e+00 1.5757147716680000e+01 1.4584514211749999e+01
185 2 3.6724726272649999e+00 7.1387351440130002e+00 1.2901930374100001e+01
186 2 1.6770345070829999e+00 8.1236885736160005e+00 1.3629799079610001e+01
187 2 4.0126237979430002e+00 1.1300222608540000e+01 7.7109367757729999e+00
188 2 5.7842181409980000e+00 9.7808018925350009e+00 7.6576659679389998e+00
189 2 1.1086086192190001e+01 7.8954505212779997e+00 1.2159201960690000e+00
190 2 1.0861312954250000e+01 8.3021810123729995e+00 3.5282673460299998e+00
191 2 2.8599391271740000e+00 3.7280507076520002e+00 3.1784027251290001e+00
192 2 2.0727853135040002e+00 1.6372427824580000e+00 2.4457142483799998e+00

Velocities

1 -3.9495367641970001e+00 1.7450900669700000e+00 -3.6947167425530001e+00
2 6.5446507805940002e-01 3.6247931770049999e+00 1.5828220238620001e+00
3 4.7345009960760001e+00 -3.3291561242870000e+00 -8.7728608924200002e-01
4 1.1967279569800000e+00 -4.9365895768260000e+00 7.7164040970109999e+00
5 -1.1580981953180001e+00 -3.6748834367150002e-01 -9.9710415356060000e+00
6 -1.2715407314389999e+00 5.4221388629189997e+00 -4.2224311169549997e+00
7 9.9719088415760009e+00 -2.9919060053340001e+00 -1.5138419080100001e+00
8 -2.2170135574979999e-01 -4.0013322816579997e+00 -2.6555100695950000e+00
9 -7.3981131565840004e+00 -1.2067294546200000e-01 -5.7041946650390001e+00
10 3.2418895482429999e+00 -1.0088308285100000e+01 2.3254072551850000e+00
11 2.9238618792579998e+00 2.9070107404040000e+00 2.6731096328390000e+00
12 5.6494501793390004e+00 -5.2118064869590004e+00 -3.0298768248860002e+00
13 1.5510460186670001e+00 2.5430345204520002e+00 6.3327930764260003e+00
14 6.5434652735920000e+00 2.2012634348020002e+00 1.9519713712169999e+00
15 1.3577946819710000e+01 -2.8315938391180002e+00 -3.7303270284019998e+00
16 4.0009541429329998e+00 -2.8279103579700000e+00 -1.3737853842980000e-01
17 -5.4047324972829998e+00 -8.2284835486379997e+00 -3.3478516128339999e+00
18 -3.8946819769099998e+00 2.2681800749429999e+00 -9.7801228674329999e-01
19 4.9339498722039998e+00 -7.9559172044799997e-01 3.5048776472699998e+00
20 -1.0811496783190000e+00 3.4331400904670000e+00 -2.5718233859059998e+00
21 3.8334821810920001e+00 4.9578012464030002e-01 6.6018882318100003e+00
22 4.5952739155500000e+00 -3.1824678913929998e+00 8.5148337982920008e+00
23 -4.0354618370880004e+00 5.7279731824519997e+00 2.9970815618429998e+00
24 5.9215568943639996e+00 3.3543480026469998e+00 6.4330774304189999e+00
25 8.1949085429269992e+00 -1.1514501207450001e+00 2.7971735632199999e+00
26 6.0303667673319996e+00 -3.9475301653029998e-01 -6.9051765618319996e+00
27 -1.7218005782240000e+00 -1.4289775465679999e+00 1.0539370790189999e+00
28 -4.7773939244749997e+00 -1.2402743490299999e+00 4.5885761758639998e-01
29 6.4819285846339998e+00 8.1342297110200001e-01 7.5042706521699998e-01
30 1.3538231122800000e+00 -3.9481791522299998e+00 4.6090258199629996e+00
31 -6.3197155114179999e+00 1.7334786956910000e+00 1.8959682989700000e+00
32 -2.4771188355149998e+00 -4.2581022142910001e+00 -2.8174959945480000e+00
33 -2.4642240328099998e+00 5.7274206003340000e-01 2.7939952851180001e+00
34 -2.8803173088520002e+00 -6.4796060199870000e+00 3.1744325632299999e+00
35 8.7012060391110002e-01 7.2229859186400003e-01 -3.0376949208389998e+00
36 -6.6294976740829998e+00 1.0503320829060001e+00 1.4659572192190000e+00
37 -6.9602465878549999e+00 7.3424901403179996e+00 6.2366701281409997e-01
38 9.3395373000549995e+00 -2.3341395924900001e+00 -1.1084513268650000e+00
39 -8.7502541767050008e+00 1.0583327293529999e+01 -7.8523899767650001e+00
40 8.3562354868090001e+00 -3.1214832585879999e+00 5.8794960425929998e-01
41 3.4996956797259999e+00 4.9460712060020001e-01 4.3526419823879996e+00
42 2.0157228619950001e+00 2.8377814238119998e+00 2.7304854750669998e+00
43 -9.7317419321410004e+00 1.9460776960720001e+00 6.9113014933460004e+00
44 -1.7925450265959999e+00 -1.4999243491750001e+00 2.3349806314429999e-01
45 1.2265320910480000e+00 5.8417042284739997e+00 -4.9865706517810002e+00
46 -1.4826764965060000e+00 4.8338996678699999e+00 -3.3901957675930001e+00
47 -4.8762278144049997e-01 -1.7952159773690000e+00 -8.4952833482559997e-01
48 -1.4805739004330001e+00 -4.2748840363329998e+00 1.0584783123840000e+00
49 1.6319598364900001e+00 -6.0951390399109995e-01 3.3530569358530000e+00
50 -3.6568103878570000e+00 -6.5182318404760000e+00 -6.8127783193699996e+00
51 -9.8084960717180003e-01 4.3114698447900002e-01 5.7325983071330002e+00
52 -7.6755031361549997e-01 -6.4011675672540003e+00 -8.6377017693369993e+00
53 1.8534779684600000e+00 -1.0858807220250000e+01 7.8195727288510000e+00
54 -4.8749646533780000e+00 -2.1219086844190000e+00 -1.2183769214269999e+00
55 3.2338937841359998e+00 1.1950809874660001e+01 -5.5832087830679997e+00
56 2.2107331165440001e+00 7.6235335570879998e+00 4.2347607925219997e+00
57 -3.3055267704509999e+00 1.2041027073490000e+00 4.6856545642749996e+00
58 1.2050262925550000e-01 2.4018656814070000e-01 1.3635726403180000e+00
59 -7.1483505079130005e-01 6.3344909094939998e+00 1.0665411310249999e+00
60 -6.3935418903170005e-01 -6.7202803006970002e-01 -2.6334530186389999e+00
61 1.7548170024059999e+00 5.4171918654070002e+00 8.0649477574230000e-01
62 -3.3902325502710000e+00 1.7326594828260000e+00 -3.2881814274450001e+00
63 -8.7626342745230001e+00 5.8760607246819996e+00 2.6399692590780002e+00
64 -1.4454438889220000e+00 1.1091061181300001e+01 7.1029496284310004e-02
65 -2.5723353572190000e+00 -2.7329083735589998e+00 1.6732399514840000e+00
66 5.6401086030679997e+00 -7.6334975484959999e+00 8.7666776995879996e+00
67 -4.8221521471999997e+00 3.0095124674010001e+00 3.5066568770730000e+00
68 2.9097236718200001e+00 -1.2766086847960001e-01 2.3894440118630000e+00
69 2.7309376956520000e+00 7.2975615731129995e-01 1.3734957600639999e-01
70 7.4914317260279999e+00 3.8881383506999998e+00 3.1297671753900000e+00
71 6.5876564660119996e+00 5.6528883236590000e+00 -1.5046016024230000e+00
72 4.4711660071050003e+00 4.0813468508690001e+00 -4.2150555128010003e+00
73 5.0996680034940001e+00 -2.4828464897010001e+00 -5.9753057631140001e+00
74 -1.0514201242070000e+00 5.0335409879670001e+00 1.7132470310100001e+00
75 4.9948787515199999e+00 -1.0383717732620000e-01 2.5587433200640000e+00
76 -2.4876396078059999e+00 2.8225083720659999e-01 -4.8265132037970000e+00
77 4.7217882860650001e-01 -4.2842368075539996e+00 -2.3362024752530002e+00
78 -5.2110206867360002e-02 -3.7466699129980001e+00 -4.3008093410230002e+00
79 -4.0465841925759998e+00 4.1558750714389996e+00 -4.4505024288959998e+00
80 -1.5327222685919999e+00 -4.3396971451830000e+00 5.1237224069850003e+00
81 7.6877539613370001e+00 2.7820910352079999e+00 -9.5258008360929995e+00
82 -5.2782023837700001e+00 -7.7949927255370000e-01 -1.2284426749830000e+00
83 6.4918178187109998e-01 7.5363289614039997e-01 -2.3356533287860000e+00
84 -2.3436808175490000e+00 1.3770300623720000e+00 3.3649363225640001e+00
85 5.1543080169500000e+00 6.5696755462740004e+00 3.8272730331500000e+00
86 -2.8859562657639999e+00 2.1139883064060001e+00 4.1417204164100001e+00
87 -3.4028481612900001e-02 -3.8527879337690001e+00 -5.4528207273650002e+00
88 -6.5186648776620002e+00 4.9425582471640001e-01 9.9848249559320001e-01
89 -3.2983995094080001e+00 -8.4154257450119996e+00 6.0181061912349998e-01
90 -2.6986679382190002e+00 5.9737012113820001e+00 -4.9959590090840003e+00
91 2.6694608641730002e+00 -2.9113821157870001e+00 2.6784230375599999e-01
92 -4.0737231823720004e+00 6.1622252804539999e+00 -2.0543239418839998e+00
93 3.0480531402670002e-01 7.6497236654620000e+00 5.4246057608169995e-01
94 5.5706790333570000e+00 -4.5647261232560004e+00 2.2202624864580001e-01
95 2.5003915270300001e+00 -6.0717002228980001e-02 3.5910123084449999e+00
96 -1.0888975048350000e+01 7.4781172121140003e+00 -6.5944801191320002e-01
97 -1.8843647702499999e+00 -1.8717923327890000e+00 9.8243333521690008e+00
98 -4.1410461803290000e+00 3.3814274152310002e+00 -7.0649425686029999e-01
99 -1.3483278817280000e+00 3.9994439415429999e+00 4.2831862809230001e+00
100 2.9025656199290002e+00 1.8212423856350000e+00 1.7911592396310001e+00
101 -4.4999768073149999e+00 -1.2095739346329999e+00 -4.5981063354520000e+00
102 1.5908653619760000e+00 -4.4470275898150002e-01 -5.7712919185039999e-02
103 1.6523675344889999e-01 5.2047200000669998e+00 2.8460026311350002e+00
104 3.1556889239169998e+00 1.3221028728449999e-01 -7.4814995275629999e+00
105 8.0368501948030002e-01 2.9032444073470001e+00 1.5864347076179999e-01
106 2.0346716606189998e+00 5.3617963769150001e-01 -1.4830214877479999e+00
107 -3.8849642383009999e+00 1.1611072325360000e+01 -1.4924313048019999e+00
108 -2.8285332726469998e+00 7.8763495094060003e+00 1.4039343809120000e+00
109 -5.7261807922889996e-01 -1.8508305990250000e+00 3.1166758675950001e+00
110 7.5363116339490004e+00 -3.9006907484240001e+00 1.7705013681580000e+00
111 -9.8295829443309994e+00 1.2475400619810000e+00 4.5975863866960003e+00
112 -6.7468657242990000e+00 -3.1137764622080000e+00 -7.9917193119299998e+00
113 7.8305548827950000e+00 -1.4403578052960000e+00 4.7124523759430001e+00
114 1.4966482391139999e+00 -2.2318848648389999e+00 -3.4558477335359998e+00
115 -1.9058867803020001e+00 -1.9479300236510000e+00 3.5731064545949998e-01
116 -1.2159928817640000e+00 -3.3061122674540000e-01 8.6858441437889997e+00
117 2.2613175968839999e-01 1.1553996838609999e+00 3.0901756335260000e-01
118 3.4912513227350002e+00 -1.0184342165940000e+01 -2.9857387460820001e-01
119 1.7128994981229999e+00 -1.4848577767680000e+00 1.8144318820680001e+00
120 -9.6729828302400001e-01 -5.6016313973450005e-01 3.3080335306310000e+00
121 -3.2708366104729998e+00 1.0871981892460001e+00 2.1868394800530000e+00
122 4.7042031186080002e-01 2.2640422680960000e+00 -8.2161224636130004e-01
123 1.5614759970879999e+00 3.5113536472589999e+00 2.9454041259590000e+00
124 -1.9780278234260000e+00 -3.3913273086690001e+00 -3.2004719318079999e+00
125 -4.8220522178980003e+00 -4.2725110691110002e+00 -1.1415909530070001e+00
126 2.5983801048210000e+00 -3.3900327776179999e+00 -6.1390573105280000e+00
127 -7.4848087968139998e+00 -3.3087229863499998e+00 7.3852068107540003e-01
128 -3.3132368998109998e+00 5.5223238911059997e+00 2.2679416354769999e+00
129 -5.0004253112930002e+00 -1.1849632752779999e+00 -7.8063873462459998e-01
130 -4.8787829170440000e+00 4.2198386840689999e+00 4.0574439198330002e-02
131 1.3524872558570000e+00 4.1830885792209997e+00 2.2658911998770002e+00
132 -7.7533539627029997e+00 -3.0992070940049998e-01 3.1518473086099998e+00
133 5.3403094510880003e+00 -3.0050549091209999e-01 -2.5746417947750002e+00
134 5.3504556391939995e-01 1.1272018281439999e+00 4.9139002677499999e+00
135 -2.1104863662629998e+00 7.8528400333460002e-01 -6.3433131047879998e-01
136 -1.0983185497600001e+00 2.4546215779970000e+00 -3.4066283552679999e+00
137 2.6630990007149999e+00 1.4731603018870001e+00 1.6552963268070000e+00
138 -7.3491620753849995e-01 1.5622050789349999e+00 2.7920781841140002e-01
139 3.8831549094929998e+00 -4.9455646152060000e+00 5.1630333779260004e-03
140 -5.2284531751319996e-01 4.5709554157330001e-01 -2.1726573241690001e+00
141 -1.6182541365620000e+00 -2.1468887629759998e+00 -9.0788689570980008e+00
142 -4.0926733949470000e+00 -8.9535508578159995e+00 -1.3225604861609999e-01
143 5.9739044981629998e+00 3.1120505077099998e+00 3.1022108928860002e+00
144 2.7614294747260000e+00 -5.4646143432600001e+00 -1.5333258963970001e-01
145 -4.8598706200309998e+00 -1.8081773392910001e+00 6.1932408160179997e-01
146 -4.2052663814300004e+00 3.2127681924910001e+00 1.8964048141650000e-01
147 1.5284391278939999e+00 -1.4433375404919999e+00 -2.3236692381559999e-02
148 -3.0505073095539998e+00 -3.8461497220320000e+00 -2.5733128601419999e+00
149 -1.9043643440289999e+00 6.5776345948990000e+00 4.9950614210340003e+00
150 4.1235544649299999e-01 1.8839415824190000e+00 -7.8117640224320004e+00
151 4.1935064423249999e+00 6.2708970162300002e+00 3.3189311918510001e+00
152 -9.1815550211920005e+00 2.5271245557139999e+00 8.5533397480660001e-01
153 -9.9218577580909995e-01 -5.6605521718520002e+00 2.7832622934350000e+00
154 -4.9979865215859998e-01 2.3847545932309999e-01 4.7283336086389999e-01
155 1.5237046073659999e-01 2.3079078409789999e+00 -1.0201332614500001e+00
156 -1.7836598254809999e-01 -5.5176225060990003e+00 -8.7881541875559996e+00
157 -5.2792659323509996e+00 -4.1466604047390003e+00 9.0771242556520004e+00
158 1.5260540079389999e+00 2.8444094046920001e+00 -3.3676246541010002e+00
159 1.5101074813290001e+00 1.5579171112010000e+00 -2.9813591925310001e-01
160 -2.9523892889429999e+00 -2.2043020767030002e+00 -1.4454920168070000e+00
161 -3.9195629644990002e+00 -1.2267112141740000e+00 -3.7563825734749998e+00
162 -1.6067297507589999e+00 -5.5353296994969998e+00 6.7943852707789998e-01
163 -6.3225940830079996e-01 -1.9937764269380001e-01 1.4327674059410000e+00
164 2.2196426248450001e+00 8.5116054089240001e-02 3.2842785706569999e+00
165 7.8616772348230002e-02 -7.4688672448249998e+00 -1.8068815724809999e+00
166 3.3303501000839999e+00 3.0179608554619999e+00 2.5725720959329998e+00
167 -1.3018340059300000e+00 -6.2874697424269996e+00 -5.1381418900750004e+00
168 2.5914293014910000e-01 -1.2335875121400000e+00 2.4926876446230000e+00
169 2.9103093399139999e+00 4.3657275521100001e+00 5.0877197706610000e-01
170 -2.1909175284030000e-01 -3.7579452430250000e+00 4.1583661654799996e-03
171 1.4186634279949999e+00 4.5441847975509999e+00 2.8205922562520001e+00
172 -6.7108113024610005e-01 -5.5596988122070004e+00 2.1660441738680000e-01
173 -3.5100458767530002e-01 3.2387202082150002e+00 -1.0153255049550001e+00
174 -4.2803349812600002e+00 -5.8787426038659998e+00 -4.2846159642939998e+00
175 6.5917526100460000e+00 -2.9851649115419998e-01 3.0579639130379999e+00
176 -4.5692094836510000e-01 -6.4159990973870000e+00 -7.3355625568039997e+00
177 3.5118333022749999e+00 7.7910810752210002e+00 -2.2834636034810001e+00
178 5.7188830811890004e+00 -8.7629837636979993e+00 3.8645646234009998e+00
179 -2.2926677762890000e+00 6.2036460921490000e-01 -4.8899083004290000e+00
180 1.1124319899760000e+00 -3.8605196778050002e+00 8.1461175123130003e-02
181 6.1948580223639998e-02 -4.0645793924830000e+00 -1.2318355339490000e-01
182 8.6216221680210001e+00 -5.1224312640370000e+00 1.8601364333910000e+00
183 1.2256475907490001e+00 5.5935552457300002e+00 2.0806642054869999e+00
184 -9.2412844121530000e+00 3.2850412027539999e+00 -2.3529906288880000e+00
185 -1.7944692277620000e+00 5.3558904805410004e+00 -5.3089550792219997e+00
186 4.0010783929829996e+00 1.0908152526280000e-01 2.2670358738320000e+00
187 -1.1799012021149999e+00 -3.2414670493900002e+00 1.3801104582420001e+00
188 3.3023532264360000e-01 -4.3933960902870002e+00 -5.1532827189640003e+00
189 6.6554399398469997e+00 1.6942044810070001e+00 8.3440934893340002e-01
190 -2.0750244664620001e+00 -9.0691431308390003e-01 -3.4293998508670001e+00
191 7.9215331841939998e+00 4.1864570074969998e-01 2.0895533609590000e+00
192 3.4561216279079998e+00 -6.5199990840449997e+00 -1.3210870644220001e+00
