LAMMPS data file extracted from NVT dump, timestep 480000, units metal

192 atoms
2 atom types

0.0000000000000000e+00 1.6195563468200000e+01 xlo xhi
0.0000000000000000e+00 1.6195563468200000e+01 ylo yhi
0.0000000000000000e+00 1.6195563468200000e+01 zlo zhi

Masses

1 12.00000000
2 16.00000000

Atoms # atomic

1 1 1.5754675735259999e-01 4.9179661907360002e+00 1.1012716107739999e+01
2 1 8.8782323513839998e+00 1.4987141113600000e+01 1.0044885622960001e+01
3 1 7.9455751847979998e+00 1.3886787654250000e+01 6.4144378328579998e+00
4 1 3.8787051539210000e+00 1.5423582173630001e+01 3.6962947924280001e+00
5 1 1.1201812175890000e+01 1.0544531334640000e+01 1.5203253796540000e+01
6 1 1.5182955423379999e+01 4.1975523669339996e+00 7.1820140943249999e+00
7 1 1.0446717888509999e+01 1.1088690876659999e+01 9.4545917195910008e+00
8 1 8.2530523963750007e+00 2.7257672693799999e+00 4.6475773045219997e+00
9 1 1.0823305655900000e+00 1.1955208820379999e+01 9.8685532335549997e+00
10 1 9.8926045949719992e+00 1.3148233592600000e+01 2.8216437030649999e+00
11 1 1.9182269409160000e+00 1.0275319033720001e+01 7.0589475895779996e+00
12 1 1.1043880978490000e+01 3.6642583043750001e+00 8.7734849323279995e+00
13 1 1.2712928720590000e+01 5.1755623431259998e+00 1.4426868117290001e+01
14 1 1.2218664930519999e+01 3.2867529149090000e+00 4.0609219985739999e+00
15 1 8.8000804053360007e+00 3.6736252977640000e+00 1.4441772907960001e+01
16 1 4.4112900368240000e+00 6.2451213386470004e+00 5.2967984158380004e+00
17 1 1.4684041353440000e+00 1.5935327058740000e+01 1.5556267508980000e+01
18 1 1.2951156600139999e+01 1.2784103137420001e+01 7.6767138449469998e+00
19 1 2.3509176958169999e+00 8.5198625667679995e+00 1.1151923687089999e+01
20 1 8.3034159556479992e+00 9.2422304076560007e+00 2.8578128648470003e-01
21 1 2.9018263541690001e+00 2.4199354229600001e+00 2.1240102693859999e+00
22 1 9.4590252598250002e-01 8.7362523369270004e+00 4.0193507659929999e+00
23 1 1.2993942452670000e+01 1.0967381196870001e+01 3.6738457509670002e+00
24 1 1.5797323886570000e+01 1.1310074334360001e+00 2.6584236810680002e+00
25 1 1.5879534396810000e+01 1.3573645645510000e+01 5.3634787732509999e+00
26 1 8.2185327367440006e+00 6.0132761168559998e+00 3.0745643897539998e+00
27 1 5.7980325954050000e+00 7.0821546007230003e+00 1.4255244976920000e+01
28 1 1.9703988242190000e+00 1.9239531094200000e+00 1.1488149568930000e+01
29 1 5.4501106196239997e+00 4.5751835525139999e+00 1.8717422231270000e+00
30 1 1.4708499734940000e+01 6.0869223113290003e+00 2.8719925579510002e+00
31 1 7.9329269537420002e+00 9.4292018510400002e+00 5.5241925088329999e+00
32 1 1.2546040248060001e+01 5.9812023971650001e+00 1.0764476326970000e+01
33 1 1.5056830677820001e+01 8.1542519713669996e+00 1.4550428097810000e+01
34 1 6.4374163788059997e+00 1.5820829448620000e+00 1.0160959342909999e+01
35 1 1.8806801527890000e+00 6.4343086246340002e+00 1.6395363613450002e+01
36 1 1.0110939154050000e+01 6.5523218716770000e+00 5.9311128719699999e+00
37 1 5.6331611750660002e+00 1.3832733210150000e+01 1.1601595225729999e+00
38 1 3.5259011820109998e+00 1.5217041017150001e+01 8.6841888301749997e+00
39 1 1.3701134836370001e+01 1.4143363005299999e+01 1.2588853949080001e+01
40 1 1.4219626424290000e+01 8.8196694100670001e+00 6.9088901637179996e+00
41 1 4.8768306246859998e+00 7.8882529911220001e+00 2.2887163929400001e+00
42 1 2.7036087093479999e+00 6.3400217247389996e+00 8.4640934103959999e+00
43 1 4.0903934197040002e+00 1.0654717669340000e+01 1.4918657796620000e+01
44 1 1.3039667313360001e+01 1.5259866555569999e+01 1.9356568080940000e+00
45 1 3.4635246314730000e-01 1.1999770386310001e+01 1.3954798757230000e+01
46 1 1.2061545212910000e+01 1.4902107388690000e-01 7.0874576738870001e+00
47 1 1.3506492515070001e+01 1.9806618710440000e+00 1.0961945897320000e+01
48 1 1.6116379124360002e+01 1.5517015624900001e+01 8.7299040980560001e+00
49 1 1.4618516251770000e+01 9.8847593329900008e+00 1.1307543115010001e+01
50 1 4.3639976497410000e+00 2.1604670523650000e+00 1.4214879207619999e+01
51 1 8.7498132484540001e+00 1.4932871746309999e+01 1.4329915108670001e+01
52 1 6.8861164663469996e+00 1.1426563447190000e+01 1.1989279449860000e+01
53 1 4.4274750156709999e+00 1.1145119124680001e+01 3.5178661312370001e+00
54 1 7.8533818661599997e-01 1.2010048506200000e+01 1.7701798061109999e+00
55 1 6.5858038682190001e+00 5.2379612138180001e+00 1.1377879025710000e+01
56 1 9.8395647325619997e+00 9.1196341947979997e-01 9.9654543300239995e-01
57 1 1.1428280462520000e+01 7.9903359509980003e+00 2.1812166318689998e+00
58 1 7.5781409623840004e+00 8.0973294364879997e+00 9.0113129934109999e+00
59 1 1.9199539405149999e+00 2.0143393172140001e+00 6.2641201896220000e+00
60 1 3.8490074150650000e+00 1.4769804704040000e+01 1.2098348245770000e+01
61 1 5.4836040158790000e+00 1.1929532355879999e+01 7.8743135059379998e+00
62 1 6.2562017143109996e+00 3.4889998122049999e+00 7.3426195401849998e+00
63 1 9.5413922161549998e+00 8.5202614637590006e+00 1.2759195317020000e+01
64 1 1.5722482891760000e+01 3.2937926616280002e+00 1.5197603829780000e+01
65 2 1.5757522117970000e+01 5.3954632297530001e+00 1.1896390013690000e+01
66 2 7.4912850727500002e-01 4.4539734719500004e+00 1.0113570531360001e+01
67 2 8.1773247599209995e+00 1.4495198184520000e+01 9.2427823068129999e+00
68 2 9.6658988209049994e+00 1.5412104176900000e+01 1.0829122481960001e+01
69 2 8.1733011966829991e+00 1.5037688676169999e+01 6.5381123676930004e+00
70 2 7.6876523523609999e+00 1.2744468221860000e+01 6.1740550598199997e+00
71 2 4.6249621411269999e+00 8.8830793106809997e-02 3.8871022989180002e+00
72 2 2.9596165842429998e+00 1.4711642173770000e+01 3.4090758450180001e+00
73 2 1.1001905885499999e+01 1.0428210389160000e+01 1.4043100483610001e+01
74 2 1.1328045641230000e+01 1.0709697745550001e+01 1.8253580932350000e-01
75 2 1.5362315454399999e+01 5.2729624119920002e+00 7.6706544409840003e+00
76 2 1.5036274251400000e+01 3.0839454648319999e+00 6.9054050894270000e+00
77 2 1.0259615410940000e+01 1.2265345812400000e+01 9.4337181235240006e+00
78 2 1.0518959594320000e+01 9.9301897893900009e+00 9.6125474619430005e+00
79 2 7.2067769784089997e+00 2.3924868503579999e+00 4.2316540712509996e+00
80 2 9.2847316280629997e+00 3.0549585168550002e+00 5.1020919187649998e+00
81 2 9.1693615105220005e-01 1.2098424759009999e+01 8.6907596315360003e+00
82 2 1.1976090194669999e+00 1.1834130381860000e+01 1.1057735099529999e+01
83 2 9.8502384416460007e+00 1.2634801430280000e+01 3.8947569985150001e+00
84 2 9.8291388393760002e+00 1.3758493385060000e+01 1.7965614440790001e+00
85 2 2.9691848934170002e+00 1.0332097721960000e+01 7.6406156446739999e+00
86 2 9.2460374811150003e-01 1.0046182332080001e+01 6.4737140594820000e+00
87 2 1.2082445224110000e+01 3.4619377262250000e+00 8.2254206153750005e+00
88 2 1.0007234573450001e+01 3.8470569628320002e+00 9.2577126585380007e+00
89 2 1.1598709282720000e+01 5.0001392319600004e+00 1.4734531335300000e+01
90 2 1.3813207243270000e+01 5.4513695857859998e+00 1.4076645118920000e+01
91 2 1.2453201877770001e+01 3.8647590310640001e+00 5.0564919227059999e+00
92 2 1.2010962872000000e+01 2.7677870758570000e+00 3.0570058799880000e+00
93 2 8.2841249480659993e+00 4.5508780952130001e+00 1.4988590120390000e+01
94 2 9.3742166653010006e+00 2.7856159917820000e+00 1.3947006709640000e+01
95 2 4.5946044642170003e+00 7.4221061380190001e+00 5.3761547479700003e+00
96 2 4.3673070428970000e+00 5.0880572736809997e+00 5.3614195787209997e+00
97 2 2.1292137305800001e+00 1.5214143430420000e+01 1.8978777223150001e-02
98 2 8.4237141790269998e-01 4.1129036543800002e-01 1.4831926330809999e+01
99 2 1.2510003613340000e+01 1.3341044701560000e+01 6.7137018485550000e+00
100 2 1.3409686366270000e+01 1.2107139316360000e+01 8.5360584390510006e+00
101 2 1.8515619417870000e+00 7.5065426673419999e+00 1.1511767647659999e+01
102 2 3.0559931404489999e+00 9.4182064806430006e+00 1.0860711774580000e+01
103 2 7.7436293259309998e+00 1.0261629028640000e+01 3.9832200999099998e-01
104 2 8.8304255579500008e+00 8.1788187062839999e+00 1.6454191318219999e-01
105 2 3.2703496630169999e+00 2.5137655765629998e+00 1.0269586543539999e+00
106 2 2.4947070641510001e+00 2.3796200206579998e+00 3.2248822198150000e+00
107 2 5.9209454749750001e-01 9.7661184213539993e+00 3.5045508397240002e+00
108 2 1.3232883972600000e+00 7.7086944582620003e+00 4.4277083961789998e+00
109 2 1.2924991946110000e+01 1.1424042211530001e+01 2.6267997357890001e+00
110 2 1.2999320853280000e+01 1.0441456688650000e+01 4.6957099319070004e+00
111 2 2.7183856942419998e-01 1.3174065975789999e+00 1.6962748798989999e+00
112 2 1.5123466960269999e+01 9.4397729840569999e-01 3.5975851306830000e+00
113 2 5.1137474887290002e-01 1.4328310260429999e+01 4.9569567298350004e+00
114 2 1.5079293131969999e+01 1.2805339896930001e+01 5.7180537904789999e+00
115 2 9.0309646395830008e+00 5.5443525805849996e+00 2.3533266456509998e+00
116 2 7.4136985767110000e+00 6.3677006983859998e+00 3.8378307186540002e+00
117 2 5.3049831791370003e+00 7.1996958724960001e+00 1.3183159482540001e+01
118 2 6.3220119039740004e+00 7.1000248412940001e+00 1.5320533533980001e+01
119 2 1.2246551508470001e+00 2.3847886901169999e+00 1.2307803532239999e+01
120 2 2.6809092596989998e+00 1.4374826965730001e+00 1.0680428882990000e+01
121 2 4.4951229489450002e+00 5.0647736034430002e+00 2.3835830036879999e+00
122 2 6.4135154068929996e+00 4.1658790995380004e+00 1.3822367530280000e+00
123 2 1.5053471578390001e+01 4.9797496130079999e+00 2.9798088522700001e+00
124 2 1.4434441738809999e+01 7.2290123782229996e+00 2.8405736696860000e+00
125 2 8.7214360772919992e+00 9.3914858004179997e+00 6.3506192199039999e+00
126 2 7.1037052372789997e+00 9.5469603481740002e+00 4.7250503316519996e+00
127 2 1.2884729901860000e+01 7.0045683257359999e+00 1.0261735477180000e+01
128 2 1.2103453147450001e+01 4.9722171781759998e+00 1.1124037604950001e+01
129 2 1.3868002216190000e+01 8.2743467401089994e+00 1.4484869437120000e+01
130 2 1.6194924811820002e+01 7.8882165217239999e+00 1.4562976630290001e+01
131 2 6.1243659397380004e+00 2.6571046053830001e+00 1.0087238644439999e+01
132 2 6.8643671098099999e+00 4.5453672021230002e-01 1.0216279914690000e+01
133 2 9.5136126236219998e-01 6.2382650597920000e+00 8.9723822913530005e-01
134 2 2.7693565321690001e+00 6.6991803472129998e+00 1.5680960033880000e+01
135 2 1.0265339353390001e+01 6.6601703630060003e+00 4.7695540051650003e+00
136 2 1.0036845170290000e+01 6.4466838888179998e+00 7.1165382444840004e+00
137 2 4.4775634995219997e+00 1.3887395790119999e+01 1.1077437386080000e+00
138 2 6.8245498623440000e+00 1.3798120879280001e+01 1.2451784723520001e+00
139 2 3.3718561043499999e+00 1.4382943446260001e+01 9.4994282565680006e+00
140 2 3.8389484792360000e+00 1.6039663038210001e+01 7.8872446501700004e+00
141 2 1.4138846730010000e+01 1.3814186222460000e+01 1.1566371507870000e+01
142 2 1.3344019818420000e+01 1.4440834742550001e+01 1.3662456105440000e+01
143 2 1.3753397004660000e+01 9.5678456697940000e+00 7.6897851679010003e+00
144 2 1.4744288996350001e+01 8.0824456750449993e+00 6.1634611760139997e+00
145 2 3.8733346935370001e+00 8.1170908876359995e+00 2.8110294826670001e+00
146 2 5.9153164294089997e+00 7.8615136491069997e+00 1.8107808184880001e+00
147 2 3.6811925265790002e+00 5.6850532953309996e+00 8.6063645550899999e+00
148 2 1.7929172406750000e+00 7.0553889964850001e+00 8.3190461916499991e+00
149 2 3.0342976576259999e+00 1.0266701129110000e+01 1.4552908310170000e+01
150 2 5.1702339112639999e+00 1.1021665260310000e+01 1.5231247287700000e+01
151 2 1.2321578109780001e+01 1.5535459927330001e+01 2.8211713372120002e+00
152 2 1.3831211615650000e+01 1.5043273060300001e+01 1.0863199271210000e+00
153 2 1.5961496990470000e+01 1.0986032818829999e+01 1.3904217549909999e+01
154 2 9.3667009608420004e-01 1.2996197152270000e+01 1.3850669240120000e+01
155 2 1.1954333193809999e+01 2.2435973219210001e-01 5.9046447117040000e+00
156 2 1.1973513264390000e+01 5.1959862136780000e-02 8.2320661508359994e+00
157 2 1.4641960132270000e+01 1.9081479798080001e+00 1.0709832730870000e+01
158 2 1.2374012622530000e+01 2.1189756057480000e+00 1.1217341607770001e+01
159 2 1.5720397486770000e+01 1.5462951159019999e+01 7.6333290030440004e+00
160 2 2.8118339695939998e-01 1.5465147008170000e+01 9.8471777983879996e+00
161 2 1.5650166635940000e+01 9.3684081418799998e+00 1.1190448195649999e+01
162 2 1.3589873884530000e+01 1.0484055673949999e+01 1.1502164922660000e+01
163 2 4.6232244073550000e+00 3.1707537792479998e+00 1.4733479945519999e+01
164 2 4.1177153330490004e+00 1.2015371292129999e+00 1.3566022891559999e+01
165 2 9.2319915927749996e+00 1.4110697744659999e+01 1.3660495727040001e+01
166 2 8.2533102820999993e+00 1.5761574859820000e+01 1.4967547180450000e+01
167 2 7.8485828375590003e+00 1.2000831424719999e+01 1.1755955272630001e+01
168 2 5.8571105958990000e+00 1.0886430266160000e+01 1.2205558337059999e+01
169 2 3.7407814614350001e+00 1.1255570100230001e+01 4.4557069440559998e+00
170 2 5.0064145534600000e+00 1.1025876069770000e+01 2.4766568666020001e+00
171 2 1.2364939630030001e+00 1.1228423880970000e+01 1.0127303831550001e+00
172 2 4.4260183648489998e-01 1.2821314982260001e+01 2.5244681849149999e+00
173 2 7.0830564070930002e+00 4.8558258541530002e+00 1.2337188550320001e+01
174 2 5.9683847160300001e+00 5.6457121039090001e+00 1.0456778013250000e+01
175 2 8.8962026057439996e+00 1.2743036782730000e+00 1.5775326875530000e+00
176 2 1.0809862538770000e+01 6.0552235079299999e-01 4.6371045074540002e-01
177 2 1.0926977092520000e+01 8.7389413904429993e+00 2.8805264784419999e+00
178 2 1.1818752168710001e+01 7.0502555484320002e+00 1.5591343279230001e+00
179 2 8.0457609221159991e+00 8.4622307924939992e+00 1.0060698217530000e+01
180 2 7.1302562708200004e+00 7.6027518634950004e+00 8.0353175274430004e+00
181 2 1.5268606193690000e+00 1.0386039001559999e+00 5.7169979840740002e+00
182 2 2.2558604816010002e+00 2.9118665009610001e+00 6.9746854181379998e+00
183 2 2.7888587246509999e+00 1.4805941355510001e+01 1.2517105674290001e+01
184 2 4.9348748046730000e+00 1.4711465873540000e+01 1.1695020035160001e+01
185 2 6.2440767562259998e+00 1.1226439133630000e+01 8.4487026018619993e+00
186 2 4.7806353842449996e+00 1.2645275077150000e+01 7.2117886162809999e+00
187 2 5.6828520818490000e+00 2.4992593585409999e+00 7.0866577133880000e+00
188 2 6.9941074635330001e+00 4.3983528195429997e+00 7.6015038330730000e+00
189 2 8.5857807228530003e+00 9.1397994864619996e+00 1.2888135201140001e+01
190 2 1.0453229389710000e+01 7.7904908194490003e+00 1.2616578658990001e+01
191 2 1.4684204253170000e+01 2.7834914474039998e+00 1.5046290930020000e+01
192 2 6.0597372936909999e-01 3.6772977108379998e+00 1.5341250202430000e+01

Velocities

1 5.9005928281219999e+00 3.6200868413620002e+00 2.7508088880249999e+00
2 -2.5690604274930000e+00 4.3614281079700001e+00 -2.9828509695999998e+00
3 -3.7974942530619998e-01 8.0341907261010004e+00 5.5111327159309997e+00
4 1.2112369762260000e+00 -4.6215761211700004e+00 2.5054774148179999e+00
5 -7.1951628768419997e+00 7.8628319388909995e-01 -1.8868272945310001e+00
6 -7.9789700327900004e+00 -9.6672161907819998e-01 7.1102371244359999e+00
7 -2.8522808480410000e+00 1.8704358889350001e-01 -3.8168662419960002e+00
8 -6.1571559525759998e+00 4.9677193132689998e+00 -2.5779404966000001e+00
9 -3.1476739041370000e-01 -7.6108283079690002e+00 -7.4952538477079997e+00
10 -1.6008357673739999e+00 -1.2062696860260000e-01 5.6085501673689997e+00
11 7.1049694128100001e+00 -2.3135431786359999e+00 -4.0217820957630002e+00
12 1.5421120863090001e+00 -5.8203695053170001e+00 -1.7058400040270001e+00
13 -3.6941316411949998e+00 -2.6935090126230001e+00 -1.4494998063750000e+00
14 1.1292845827520001e+01 -6.2211322679460004e+00 -1.5298879182170000e+00
15 -3.3483279439809999e+00 -1.0400646425200000e+01 -5.2018827615239998e+00
16 -1.0382057836560001e-01 2.1972375544869999e-01 7.1639232644900002e+00
17 2.7102068927070002e+00 3.7779828987260000e+00 2.9375841272469998e+00
18 -9.0242339273810002e-01 4.9219621699419998e+00 -8.7894841184360004e+00
19 4.7368528943039996e+00 8.2037998670879997e+00 5.9013589389629999e+00
20 3.0406163079719999e+00 2.0924445642229998e+00 -8.3170777045039994e+00
21 -1.0306750111120000e+01 -4.8898514626040002e-01 -6.9248157498699996e+00
22 7.5253353501989997e+00 4.3827020709570004e+00 -5.9590687972199997e-02
23 2.0921751196790001e-01 2.9781864559329998e+00 7.7559907212510004e-01
24 2.0714213416480001e+00 -9.3714567014389996e+00 -6.3744610716189998e+00
25 6.5734578715899996e+00 5.2907852020660000e+00 5.1707868327139996e+00
26 -5.4417672683880003e-01 5.3799492016180004e+00 3.4165296403340002e+00
27 -8.0437909350299996e+00 2.9616175628160000e+00 5.6357326778000001e+00
28 2.2908616802349999e-01 7.5142869398099998e-01 3.3394294065539998e+00
29 7.3605781874789997e+00 2.3045451451710002e+00 7.5785700073619999e-01
30 -4.1742153655290002e+00 -9.6354278535540008e+00 -2.4890771089190000e+00
31 -6.2676415507270000e-01 3.6193226619759999e-01 -3.0927540542809999e+00
32 -4.2345247108730000e+00 -8.0009397229729995e-01 6.8233024880170001e-01
33 -2.5179637259370002e-01 5.1826684278760000e+00 -7.0034208244990001e-03
34 -5.1281795772669998e+00 1.8766788614499999e-01 3.9490286247280002e+00
35 -4.5618098293770002e+00 4.5603558855069997e+00 1.2954260594060001e+01
36 1.0339599159570000e+01 6.8968809531680000e+00 8.6217375708470001e-01
37 1.8715291701550001e+00 -7.3530894679519996e+00 3.7864683653269999e+00
38 -3.7864945790519999e+00 -2.4781215732180000e+00 -2.5331637963370000e+00
39 1.9839985686849999e+00 -8.8128840810630003e+00 6.4056292892669999e+00
40 8.9888113824989997e+00 4.7586388053180002e+00 -1.6676622969720001e+00
41 -1.3862988960170000e+00 1.3599594481599999e+00 1.0338032970240001e+00
42 -2.1643065760339999e+00 4.6124261688250003e+00 -3.1876785777149999e+00
43 -2.0182734783749998e+00 -3.1133787370840000e+00 -3.6006451900490002e+00
44 7.9094141510069997e+00 -1.6049811784670001e+00 6.6687986136479998e+00
45 -1.4148138585950001e+00 2.4877314906699999e+00 -2.7105222345100000e+00
46 -4.9484734392040002e+00 -1.9037916425479999e+00 6.3767269381790004e-01
47 -1.1873470840200000e-01 6.4850049836350001e+00 2.8007725278929998e+00
48 4.0387613739689998e+00 4.1088567220099996e+00 8.1522554481400000e-01
49 7.1902941526760000e-01 -2.3593050335579999e+00 -5.4090991083050000e-01
50 -7.1493946517550002e+00 4.1813756802629998e+00 2.9735224213890001e+00
51 -4.0839714379050003e+00 1.6679678217550000e+00 3.2509463644340002e+00
52 6.4483870230990004e+00 5.5225257910109997e+00 4.2047637416420001e+00
53 2.6555560123499999e+00 -3.7146101685130000e+00 4.9702669213029997e+00
54 -4.6792113222280003e+00 -1.0481674204750000e+01 -8.3437994285619999e-01
55 5.3629897598830001e-01 -6.5509204934350000e+00 -1.7284167623660001e+00
56 -5.0059970640279996e+00 1.3197651636770000e+00 -2.3582977206310001e+00
57 -4.3353587061159997e+00 -1.4442414231909999e+00 8.3984248754030002e+00
58 -4.5385562286209997e-02 -5.9022362301009998e+00 2.9971565317420001e+00
59 3.3886587943149999e+00 -1.1530951848180000e+00 5.6836967158259997e+00
60 -3.8146686340720000e+00 3.0192083661710001e+00 -1.0141082247720000e+01
61 1.3526310268140000e+00 1.8152444003570001e+00 9.0502875869430000e-01
62 5.6905085470570000e+00 7.8170556446090000e-01 -4.2828406467890003e+00
63 -1.5884637370320001e+00 6.9459003579210004e+00 8.8319808819059997e-01
64 4.7102329674390004e+00 3.2637532140280001e+00 3.2516195810360000e+00
65 -2.6772615366219998e+00 2.4867232030230002e+00 7.2546268101929998e+00
66 -4.7927448202459999e+00 1.6366169446379999e+00 -8.1137670713540000e-01
67 2.7800122876739999e+00 1.5898217165510000e+00 -1.4155083066740000e+00
68 -2.4612418939799999e-01 -5.7320989493090000e+00 -4.7718304545230001e+00
69 -4.1976967049880001e+00 4.2511041368439999e+00 3.9246204194109999e-02
70 2.9685771222100001e+00 8.1505908195559993e+00 -4.5140667225950004e+00
71 9.7614674618730000e+00 9.8633354024679998e-01 1.4263977431270001e+00
72 7.3976364720510004e+00 9.0704266900200003e-01 8.7982601585900007e+00
73 -3.7634672712650002e-01 3.5354085214449998e-01 -5.2412260635890000e+00
74 4.6722363344189999e+00 -3.1794851716319998e+00 -3.6386900771880000e+00
75 6.1894293369930002e+00 2.1240317374950002e+00 -2.5680247490810002e+00
76 -3.1466038543599999e+00 -8.7484046073239996e-01 -3.4855033879069999e+00
77 -4.5382511947740001e-01 -6.2735341415720003e-01 2.4240292915250000e-01
78 -5.2091835098829997e-01 -5.3545801079370001e+00 -1.6832713842830000e+00
79 5.5629291281209996e+00 -5.2017170252670004e+00 2.8746474471560002e+00
80 -5.5496044697739997e+00 -1.7429857346099999e+00 -6.7683742294189999e+00
81 -5.3143620418230002e+00 -2.2376757300420000e+00 -1.4090334380959999e+00
82 -5.8348926355859998e-01 -6.9727734315039998e+00 -9.1024725212530004e+00
83 3.5702248635829998e+00 -1.4127026583630000e+00 8.5670141431120008e+00
84 -7.7292860769500003e+00 -3.9096730944060001e+00 2.8094718116270001e+00
85 -8.0553338367799998e-01 1.5378221573430001e-01 6.4094078468030002e-01
86 -1.3219899321199999e+00 2.5209762667460001e+00 1.1307953932329999e+01
87 -7.2856321163060001e+00 -2.9196997146569997e-01 2.1767189751429998e+00
88 7.8349821122540000e+00 -1.1125993477609999e+00 -4.3993115173830000e-01
89 -5.1417960788009998e-01 -1.6496105556800000e+00 2.6280272720130000e+00
90 6.8867418988639995e-01 -1.9279381613850000e+00 1.0829365159790001e+00
91 -1.7498668079999999e+00 -1.0916575872450001e+00 -5.3108505833389996e-01
92 4.0876819529860002e+00 6.0499545761740003e-01 -1.3332737555480001e+00
93 2.0972777171989998e+00 -1.2026240507129999e+00 -1.0190841760110001e+00
94 1.5981902174370000e-01 -5.4847481886510003e+00 1.2440090649750000e+00
95 -1.6034709813890000e+00 -1.8468443891440001e+00 8.0875783325609998e+00
96 1.9894244993379999e+00 7.0523507884190000e+00 -3.4068080646199999e+00
97 -1.0002876663569999e+00 -2.9823844452290000e+00 -3.3573798933529999e+00
98 -4.2006380379249997e+00 1.2207532378410000e+00 1.0154130442439999e+00
99 -8.6634387098770005e-01 -5.8328403983059998e+00 2.3623158917649998e+00
100 -3.6990569934150001e-02 7.5561432833369997e+00 2.2111235308930000e+00
101 1.2143472791409999e+00 -2.3546160661230000e+00 -2.3350070153360001e+00
102 -5.6797912750629997e+00 7.4902680284749996e+00 9.1413475776580000e-01
103 1.1290001828080001e+00 -2.2643309914929999e+00 -2.5942680868879999e+00
104 2.3576883147570000e+00 -8.6920232555049992e+00 2.7780263668890002e+00
105 3.2208432340609998e+00 2.6419527779449998e+00 -1.2372057855459999e+00
106 -1.0401441895150001e+00 -5.6299911823490001e-01 5.4022441743420000e+00
107 3.8533428061260002e+00 4.3493347826050002e+00 -5.1456148397010004e+00
108 -5.7704439397820000e+00 4.0267451376579997e+00 -4.4380890640480004e+00
109 -4.4855207049759999e-01 -1.2729817740830001e+00 -4.2615768538780001e+00
110 -3.5152081770580001e-01 4.1626775357439998e+00 -4.9620010278630000e-01
111 2.9401415411870002e+00 -2.2289769104069999e+00 -3.5938468832530002e+00
112 1.2969895197520001e+00 5.0377817710619999e-01 4.8941621114449996e+00
113 -2.0872296971339999e-01 -2.7930823758790000e+00 -6.8209348219060004e+00
114 -2.0948259530239999e+00 3.5904305446009999e+00 7.5783138656829996e+00
115 1.7766916962640000e+00 3.1221249014620001e+00 2.9874808268600002e+00
116 -4.1909348555169998e+00 1.7942773101609999e+00 1.6392618073050000e+00
117 -2.2168222881930000e-01 2.5066394852110001e+00 -1.8342786453150000e+00
118 7.4598520826580001e+00 -5.0437938737660000e+00 2.4057813327150002e+00
119 -2.0593206279629999e+00 3.8954868783359999e+00 -2.2452757601169999e+00
120 3.5494208242230002e-01 -1.0265321685210000e+00 -6.5443840159739999e+00
121 -3.1689034178550002e+00 -3.4436401523450000e+00 -3.1877443134319998e+00
122 4.6263589820280000e+00 -1.0628066667480001e+00 1.8804521106020000e+00
123 -1.9748347399890001e+00 3.9326350526520000e+00 -9.7329368708029995e-01
124 -1.2175091126280000e+00 -4.2713684038919997e+00 -2.1577398217580002e+00
125 -3.2466878563270001e+00 -3.7304226279449999e+00 2.9166708252509999e+00
126 -3.0365718472699998e+00 2.6436911323670000e+00 -2.1131508682560001e+00
127 -6.6129149081119998e+00 -1.6696689093029999e+00 -6.7764887839799997e+00
128 3.3975202186639999e+00 -1.2977433725750001e+00 1.7193328139360000e+00
129 3.2533749138619998e+00 -8.0272235651110002e-01 3.9035421432909998e+00
130 -1.9561348879070000e+00 1.1089107475630000e+00 8.9862078366730003e-01
131 -3.8438991418869999e+00 3.7665223118550002e+00 3.0072797915190003e-01
132 -1.0483963942790000e+00 -2.2732715551320002e+00 -1.0574878395600000e+00
133 -2.9724756924890001e+00 -1.7994451171170001e+00 3.3465674131940002e+00
134 1.8104621067180000e+00 9.2867824175150009e+00 3.5253913396510002e+00
135 -1.1977131590950001e-01 1.9827554116589999e-01 -1.7037322348730000e+00
136 4.3290229422040003e+00 -3.0226529654659999e+00 -3.5722397672630000e+00
137 -6.8101158719959998e-01 -3.8088566483620001e+00 2.0352823828369999e+00
138 -5.2486416307530002e+00 -4.1198636426909996e+00 3.7058932317009998e+00
139 -1.5306119526799999e+00 -1.1850488491220000e-01 5.5883267020979996e+00
140 -5.5487844257930004e+00 2.4445631579079999e-01 -4.7740345435549996e+00
141 6.8152351810059997e-01 5.8575992475810001e-01 -2.1209956811600001e+00
142 -5.8907651727000001e+00 -3.7389063613630003e-01 -2.4179429811080002e+00
143 8.0196380955839999e+00 -7.5696567269509996e-01 -4.3250243999359999e+00
144 4.0253627518600004e+00 -1.3819961494990001e+00 -9.0050281764019999e+00
145 1.9150376657099999e+00 -1.3508321007410000e+00 2.0905186897629999e+00
146 4.7349207041989999e-01 -2.0084340142979999e+00 2.3780165410540000e+00
147 5.0249049760910003e+00 3.9469047196360001e+00 4.0749527603270002e+00
148 4.0908599715190004e+00 -3.0285114074280002e+00 4.0378334677160002e+00
149 6.2432920147799997e+00 1.9509725889230001e+00 -4.5317277197530004e+00
150 3.1080927203880000e+00 -9.1138622815820003e-01 1.5245426101890001e+00
151 3.1826176231740000e+00 -2.1703701971879998e+00 8.9905087062329994e+00
152 1.0545159463780000e-01 -4.0795297592000002e-01 4.3090226301080001e+00
153 -4.8166552375620002e+00 -5.1090229455650000e+00 -1.5458624658230000e+00
154 4.2541247333919996e+00 -6.8544695412890003e-02 -8.9983226524319999e+00
155 -3.2443158512519998e-01 6.1939384768999997e+00 -3.3071172742260000e+00
156 -4.2250665903359996e+00 -4.7767474827360001e-01 -1.7751541788400000e+00
157 3.9400149394840001e+00 3.1645878922050001e+00 -2.8270221884720002e+00
158 5.9659274903670001e+00 -1.0264115291210001e+00 4.0692022451540000e+00
159 -4.9174534293800001e+00 1.3095785801680000e+00 -1.4563706894299999e+00
160 3.4549703598499999e+00 -8.1865610628609997e-01 4.8437024312729999e+00
161 -1.7594390055900000e+00 3.9815179380500001e+00 2.8665535938050000e+00
162 5.9248661899409996e+00 -1.4782468876060001e-01 -4.8275841605320000e+00
163 -1.5460619064709999e+00 7.1974151764289995e-01 -2.9058040915090000e-01
164 -1.5045919108750001e+00 1.7152732438470000e+00 -5.8230657320699999e+00
165 1.6238201212979999e+00 6.4366252106220001e-01 -1.8968003782530001e+00
166 -2.5340860106610003e-01 5.5449083603510001e+00 -1.8470574291299999e+00
167 -2.5926217008150001e+00 -2.3576114180079999e-01 -3.1789406487859999e+00
168 3.2809764218390001e+00 2.2676051735799998e+00 1.6941641204390001e+00
169 2.7612769730380000e+00 -2.7124357271880002e+00 -2.3390486300840001e+00
170 -2.3007536810200002e+00 1.7412766411900000e+00 -1.8627884439210001e+00
171 -3.6805407897550002e+00 -2.8012087664680001e+00 3.3200688609830000e+00
172 -1.7298168761699999e+00 -8.6265590026460004e-01 1.3070490362020000e+00
173 -1.7687220602350000e+00 6.5854601907479999e+00 7.1110028066200002e+00
174 -1.5561105927700001e+00 -2.0853002990829999e+00 -9.0953112547299997e-01
175 6.2150989694100001e-01 2.8620034613810003e-01 -3.1563601740850000e+00
176 -2.6394674780040002e+00 -4.1968878692390001e+00 -2.1921266048489998e+00
177 8.3854645449090004e-01 8.0376355744039998e+00 1.6664542904690001e+00
178 -6.4810122526970000e+00 -3.3954100947899999e+00 1.3419628678190001e+00
179 9.7671820629259998e-01 -2.4642410440400000e+00 -8.7533279477839994e+00
180 2.1457625684899999e+00 6.5367785647660004e-01 -1.7588314287430000e+00
181 -5.5901543361359995e-01 1.7191418703729999e+00 3.0643138745960002e-01
182 6.9273136720780004e-01 -3.5954346045990002e+00 1.5912598511010001e+00
183 4.9244474861230003e+00 5.3758835142440002e+00 8.8732921511539997e-02
184 -1.3401017472029999e+00 4.0708814665690003e+00 1.8545792932530001e+00
185 1.8652266924300001e+00 2.4898209825600000e+00 2.0609563857260000e+00
186 -4.6518724940440004e+00 1.4312669472770001e+00 1.3618688595349999e+00
187 1.2461182379369999e+00 3.7126218104110000e+00 3.3295341208510001e+00
188 1.3870760797710000e+00 -5.1559833215989999e+00 3.0335875303600002e+00
189 -5.4558868331300001e+00 -2.3008314591520000e+00 -4.7384477277850001e-01
190 -4.7948121009360003e+00 -1.2625542854170000e+00 4.5900344068370003e-01
191 -1.4945228767259999e+00 -6.4130699470160000e+00 -3.5477004333990001e+00
192 -5.0097743422690000e-01 -5.7416105115859999e+00 -1.0166591517370000e+01
