LAMMPS data file extracted from NVT dump, timestep 120000, units metal

192 atoms
2 atom types

0.0000000000000000e+00 1.6195563468200000e+01 xlo xhi
0.0000000000000000e+00 1.6195563468200000e+01 ylo yhi
0.0000000000000000e+00 1.6195563468200000e+01 zlo zhi

Masses

1 12.00000000
2 16.00000000

Atoms # atomic

1 1 6.0995106382660003e-01 9.0878196124160002e+00 4.0158898079420002e-01
2 1 8.1563720031589995e+00 1.3379515758909999e+01 1.5923591808079999e+01
3 1 8.5129319159169992e+00 7.8147823386649995e-01 4.2175994471670002e+00
4 1 1.1014988794660001e+01 9.7683798635020000e+00 3.9267224490179999e+00
5 1 3.3766048283869998e+00 6.5422713992650001e+00 1.5754004441799999e+01
6 1 9.9815833092559991e+00 6.8569749725429996e-01 1.4562282299890001e+01
7 1 4.1148844958069999e+00 6.4094594141070003e+00 4.8895060361090001e+00
8 1 1.3212483537070000e+01 7.6203465758569999e+00 8.8066413862310000e+00
9 1 1.5866676475700000e+01 7.7347603337920001e-01 1.1623174668870000e+01
10 1 1.5958391276430000e+01 1.0674501655669999e+01 1.2772762537280000e+01
11 1 2.3477598289429999e-01 1.3079943124010001e+01 1.4463269914629999e+00
12 1 6.8444293220520001e+00 9.1249905296759994e+00 3.7708907337330002e+00
13 1 1.3880107156670000e+01 7.4883186817869998e+00 1.3566379946760000e+01
14 1 6.1244452093839996e+00 6.0043260176019997e+00 8.0632753185540000e+00
15 1 1.4207982000810000e+01 3.9694928108699998e+00 5.9578249181210001e+00
16 1 7.9271126909180003e+00 1.2805531308510000e+01 5.3015907853159998e+00
17 1 1.0636909664930000e+01 1.4075741011460000e+01 1.9930896953670001e+00
18 1 1.2801161530370001e+01 3.9282248127910000e+00 1.0901984128450000e+01
19 1 1.2449911327360001e+01 1.2170825075660000e+01 7.3834548644430003e+00
20 1 2.8023949537730002e+00 1.5512784982559999e+01 3.5872329013509998e+00
21 1 6.7401816261079999e+00 2.3574605432400002e+00 7.8613780089259997e+00
22 1 3.5289533535130002e-01 5.6049409521250002e+00 2.9656386600600002e+00
23 1 4.8002338219530000e-01 1.3773598048069999e+01 5.9352083778709996e+00
24 1 6.9365236186870005e-01 7.1899246254599998e+00 6.6655664076459997e+00
25 1 8.7238338395580008e+00 3.2458359374989998e+00 1.1067025285600000e+01
26 1 2.6304181023980000e+00 3.2163524553810001e+00 1.1436329554110001e+00
27 1 8.6083838673679995e+00 1.4931750125440001e+01 9.2870651172770007e+00
28 1 4.1398808671290004e+00 3.9010298615640000e+00 1.1954632648760001e+01
29 1 5.2392786311990003e+00 9.3279082408439997e+00 8.1971891321000001e+00
30 1 6.0391521948019999e+00 8.8344794148340000e+00 1.1318272310299999e+01
31 1 1.8064071779590001e+00 7.1643276702850001e+00 1.1485927638350001e+01
32 1 1.5218635247000000e+01 7.8514461564380000e-01 3.2968495431929998e+00
33 1 7.0722548869850002e+00 6.3773531904130003e+00 1.4470284489919999e+01
34 1 1.2838899391200000e+01 6.0854355692170001e+00 2.0255703032699999e+00
35 1 1.4252335010970000e+01 1.4083692513810000e+01 1.0672683376100000e+01
36 1 1.0480827533210000e+01 4.7012274636170002e+00 1.4859953614920000e+01
37 1 6.1163521572999997e+00 9.2521144168239999e-01 1.2397125733279999e+00
38 1 3.6046190032430001e+00 1.5588668238409999e+01 1.2153546615030001e+01
39 1 4.8974828933029997e+00 1.0058110437940000e+01 1.4976265482150000e+01
40 1 5.2295967840020001e+00 1.2580215933210001e+01 9.8312368944040003e+00
41 1 1.1517674141590000e+01 1.0609330991540000e+01 1.2606912997540000e+01
42 1 1.4907964562900000e+01 1.0492638058590000e+01 4.8551792544290002e+00
43 1 1.0498173584360000e+01 7.1476829431480002e+00 1.1748359369679999e+01
44 1 1.2931544244980000e+01 1.4299015166060000e+01 4.5498499961399999e+00
45 1 6.3187773636170004e+00 5.0118077541410004e+00 1.4213275966440000e+00
46 1 3.5066157072480002e+00 1.3258969623310000e+01 1.4652678260720000e+01
47 1 1.5986297027779999e+01 4.3473093682960000e+00 1.4175418313480000e+01
48 1 9.4665193627999997e+00 8.7602842594649992e+00 6.6717018602270001e-02
49 1 5.2703208622929996e+00 1.2152180192990000e+01 2.0468134640260001e+00
50 1 4.0608542125530001e+00 1.6238367110530000e+01 7.7284442027090003e+00
51 1 1.2672983368810000e+01 1.0141965195070000e+01 1.6199221776270001e+01
52 1 9.3611248855750002e+00 7.4834579240989996e+00 8.4150945049059995e+00
53 1 1.4003093871520001e+01 4.8899699283839998e-01 8.1973911037300002e+00
54 1 6.0163068305000000e-01 1.1589507770490000e+01 8.4476855514029996e+00
55 1 3.0456210575000000e+00 1.0382011560950000e+01 4.5626505026680002e+00
56 1 1.2152544219190000e+01 1.8215318797830000e+00 2.3209538177239999e+00
57 1 1.0665028492159999e+01 2.8872133797660000e+00 7.5367343042629997e+00
58 1 4.5072897158660004e+00 2.9542282790310002e+00 4.9236711673380000e+00
59 1 9.2953057317150005e+00 1.0792814877260000e+01 8.9192876446229992e+00
60 1 1.4488519810220000e+01 1.1813659926950000e-01 1.5523206564400001e+01
61 1 6.4723071101369998e+00 1.5829919211610000e+00 1.3946994062980000e+01
62 1 1.7218050306779999e+00 3.0124985466209999e+00 8.3931734553159991e+00
63 1 8.8626798276209993e+00 5.6537239265140000e+00 3.8007467602210001e+00
64 1 7.7635292604180002e+00 1.3724705788240000e+01 1.2131236217010001e+01
65 2 1.5880660737239999e+01 8.4603965724190004e+00 2.7111334538580001e-02
66 2 1.5406070992900001e+00 9.6779312499879993e+00 7.8708828051019997e-01
67 2 7.5693954803560004e+00 1.4075633005989999e+01 4.6764628211890003e-01
68 2 8.5764872639340002e+00 1.2751415270240001e+01 1.5035433867220000e+01
69 2 7.5729414204939998e+00 1.6255168335190000e+01 4.2797473173189999e+00
70 2 9.4290270855029998e+00 1.4528386223930001e+00 4.2152787518289996e+00
71 2 1.1371444007610000e+01 1.0660836087190001e+01 3.2627936013309999e+00
72 2 1.0765949653610001e+01 8.7542438103369999e+00 4.4526657377329997e+00
73 2 2.6869797936420001e+00 7.0833323297930004e+00 3.2879231428639999e-01
74 2 4.1052792751849996e+00 5.9099717706519996e+00 1.5065909604770001e+01
75 2 9.4528257101190007e+00 1.6541093881600000e+00 1.4907980039150001e+01
76 2 1.0515188615740000e+01 1.5900912235080000e+01 1.4223173331600000e+01
77 2 4.0018305422450000e+00 5.6257848460800002e+00 4.0478095156120002e+00
78 2 4.0567620950360004e+00 7.0437041221780001e+00 5.9126845141880002e+00
79 2 1.3158761703580000e+01 6.5041949056970001e+00 8.3095271238770003e+00
80 2 1.3187921852340001e+01 8.6384349072620008e+00 9.3908391138840006e+00
81 2 1.4704005332680000e+01 7.2569036350100002e-01 1.1917216437080000e+01
82 2 8.2715868539140003e-01 8.6414002986710003e-01 1.1369216541189999e+01
83 2 6.5313569762900003e-01 9.9710280265639994e+00 1.2498268984379999e+01
84 2 1.5051547104950000e+01 1.1301832641230000e+01 1.3130051560669999e+01
85 2 4.8755965524590000e-01 1.4068370797429999e+01 8.6468619909680000e-01
86 2 -6.2484978020550005e-04 1.2187514256820000e+01 2.1474301490280001e+00
87 2 7.0875652078159996e+00 8.5215164417300002e+00 2.8157516413599999e+00
88 2 6.5768024440769999e+00 9.7654040791229999e+00 4.7337729353300002e+00
89 2 1.3307779467830001e+01 6.5718447271980001e+00 1.4037295790280000e+01
90 2 1.4533498126670001e+01 8.3919366921430001e+00 1.3114567698309999e+01
91 2 6.7832861418819999e+00 5.5297836339469999e+00 7.2043999206629996e+00
92 2 5.4252933902100002e+00 6.4580881184240004e+00 8.9004148289340002e+00
93 2 1.3779130860830000e+01 3.0141575738649999e+00 6.4521935047690002e+00
94 2 1.4524114409750000e+01 4.9500519115439996e+00 5.4142873875499999e+00
95 2 6.9431732292690000e+00 1.3158141252360000e+01 5.7769586667409998e+00
96 2 8.8949470473220007e+00 1.2427149536150001e+01 4.7563349438350002e+00
97 2 1.0502310202420000e+01 1.4581864775480000e+01 3.0515028601099998e+00
98 2 1.0691446651000000e+01 1.3585459594560000e+01 9.3865933313750005e-01
99 2 1.3588918005349999e+01 4.5685512480970001e+00 1.0319586980070000e+01
100 2 1.1899870695080001e+01 3.3359950024609999e+00 1.1350709727890001e+01
101 2 1.2064035889580000e+01 1.1126623032640000e+01 7.0466894096220001e+00
102 2 1.2927192241700000e+01 1.3121866120110001e+01 7.8289438161609999e+00
103 2 2.4976365235119999e+00 1.0791090644860001e-01 2.7933060204650002e+00
104 2 3.1758410056500002e+00 1.4678807298560001e+01 4.3432778958130003e+00
105 2 7.8077149900330003e+00 2.2378962224170000e+00 7.3481751470030003e+00
106 2 5.6828568358279998e+00 2.4356895463789998e+00 8.3546721070619991e+00
107 2 4.7894519125360002e-01 4.5178844771589999e+00 2.5299524810110001e+00
108 2 2.1196574146200001e-01 6.8009912063769997e+00 3.2441410779059998e+00
109 2 1.2434964508090001e+00 1.3600643585760000e+01 6.7584611520960003e+00
110 2 1.6006030631600002e+01 1.4040662195339999e+01 5.0420626913489999e+00
111 2 9.8141570554970003e-01 8.3429064833860007e+00 6.6075437109120001e+00
112 2 4.7916072311840002e-01 6.0595302775890003e+00 6.7392149883329999e+00
113 2 8.5161278572380006e+00 2.2238177525460001e+00 1.1639591510380001e+01
114 2 8.9325414294069994e+00 4.2580746449140001e+00 1.0523285315970000e+01
115 2 1.9950906308490000e+00 2.5510448357400000e+00 4.0316190502630000e-01
116 2 3.2862915314170000e+00 3.7262915774669998e+00 1.9727476922160001e+00
117 2 9.5877159557980001e+00 1.4308703200229999e+01 9.2152099730410004e+00
118 2 7.5852393405510004e+00 1.5477579557189999e+01 9.4705361542350008e+00
119 2 3.1177998917240002e+00 3.4266286401419999e+00 1.2320072327080000e+01
120 2 5.1708374887580000e+00 4.3700573163299996e+00 1.1621798808679999e+01
121 2 4.1205997622270001e+00 9.1743058869340004e+00 8.5224995772229999e+00
122 2 6.3403224387939998e+00 9.3542835112370000e+00 7.7231508355070000e+00
123 2 6.9316557444390003e+00 9.5156008816730004e+00 1.1019977625139999e+01
124 2 5.1212399430579998e+00 8.2869541124040005e+00 1.1827717064600000e+01
125 2 2.3241245315149999e+00 7.1827429653149997e+00 1.2530714312730000e+01
126 2 1.3494646915799999e+00 7.2323077338240003e+00 1.0398771436170000e+01
127 2 1.4792719163810000e+01 1.6061841833590002e+01 2.7250044517740002e+00
128 2 1.5559831743620000e+01 1.6493685435480001e+00 4.0235645884069999e+00
129 2 6.8816488995849996e+00 7.4519190145699996e+00 1.4029970331880000e+01
130 2 7.1843560869370000e+00 5.3569530333389999e+00 1.5039386360660000e+01
131 2 1.2033711222890000e+01 6.6136335572800000e+00 2.6796746526419999e+00
132 2 1.3700534452559999e+01 5.6343206698310002e+00 1.3388167385920000e+00
133 2 1.3165935000450000e+01 1.3868701406450000e+01 1.1070122695429999e+01
134 2 1.5237446836929999e+01 1.4445239577110000e+01 1.0124759519660000e+01
135 2 1.0461501426710001e+01 4.3899131805470004e+00 1.5991631576860000e+01
136 2 1.0387760974880001e+01 5.0183771262289998e+00 1.3746410574860001e+01
137 2 7.2088134302190001e+00 1.1499998058540000e+00 1.5152729975560000e+00
138 2 5.0108989194340001e+00 7.1849469328049997e-01 9.4298152779319999e-01
139 2 2.5881584455479998e+00 1.4963659944140000e+01 1.2332988458890000e+01
140 2 4.5245401762880002e+00 1.6204440968339998e+01 1.1858397408080000e+01
141 2 5.1108053084070004e+00 1.0836618503050000e+01 1.4122154099599999e+01
142 2 4.6267923078630000e+00 9.2868708441910002e+00 1.5819839467780000e+01
143 2 5.0849085293709999e+00 1.2323735633329999e+01 1.0967696252460000e+01
144 2 5.3802117779580003e+00 1.2793639617889999e+01 8.7113440925180008e+00
145 2 1.1390173421160000e+01 1.1576646860340000e+01 1.2052237105740000e+01
146 2 1.1739618313530000e+01 9.6216599961939995e+00 1.3263065031989999e+01
147 2 1.4685946925220000e+01 9.7307642418029996e+00 3.9587069045100001e+00
148 2 1.5127633277179999e+01 1.1172845989100001e+01 5.7806077966659997e+00
149 2 1.1326181251600000e+01 7.0179851362330004e+00 1.0930709298280000e+01
150 2 9.6550807483379995e+00 7.3250193060979996e+00 1.2562146542370000e+01
151 2 1.2777641247320000e+01 1.5403729476170000e+01 4.8867319756779999e+00
152 2 1.3062082037530001e+01 1.3191583485280001e+01 4.2063015660309997e+00
153 2 6.2872054120309997e+00 6.1706129781639998e+00 1.5085982952100001e+00
154 2 6.3083879638709996e+00 3.8568188613659999e+00 1.3327799279390000e+00
155 2 2.7999503761000000e+00 1.2343611827129999e+01 1.4580853412940000e+01
156 2 4.2726013879340003e+00 1.4115277375160000e+01 1.4828527752999999e+01
157 2 1.5192876708440000e+01 3.6802655737530001e+00 1.3635541116160001e+01
158 2 7.1185965716819999e-01 4.9753435888019997e+00 1.4588764325870001e+01
159 2 9.3945926299450004e+00 9.8533505149520000e+00 5.2816244044820004e-01
160 2 9.4224763113109997e+00 7.6097596980470001e+00 1.5940371828160000e+01
161 2 6.1405756268550000e+00 1.1381341758180000e+01 1.8861718601120001e+00
162 2 4.3997847946900004e+00 1.2892794395610000e+01 2.2264962864580000e+00
163 2 3.6638969125680001e+00 7.8613102812790003e-01 6.8938019406090003e+00
164 2 4.5834569935029998e+00 1.5593987496580000e+01 8.5303780582909994e+00
165 2 1.2359442591140001e+01 9.0227565923549999e+00 1.6240394170860000e+01
166 2 1.3000567710189999e+01 1.1231988090570001e+01 1.6114220554069998e+01
167 2 1.0225998148120000e+01 7.5490124393959999e+00 7.6136245442849999e+00
168 2 8.4200865505639992e+00 7.5621750181309997e+00 9.1428507078239996e+00
169 2 1.3776459785260000e+01 1.2223551653169999e+00 9.0934451152880005e+00
170 2 1.4269483836430000e+01 -2.7995681386249999e-01 7.3542375457369999e+00
171 2 1.5718667483580000e+00 1.0939240205130000e+01 8.6006416513699993e+00
172 2 1.5801238774210001e+01 1.2153883885680001e+01 8.2801547191430007e+00
173 2 2.5814421358650002e+00 1.1083640558450000e+01 5.4001103573079998e+00
174 2 3.6321888540609999e+00 9.7739030588460007e+00 3.7501422241580000e+00
175 2 1.1328397209740000e+01 1.0465772592189999e+00 1.9111511429350001e+00
176 2 1.2879867659689999e+01 2.5999542525320001e+00 2.7609205043739999e+00
177 2 1.0586967087270001e+01 3.7827459088239999e+00 6.7121078748710001e+00
178 2 1.0738444708290000e+01 2.0598966682160000e+00 8.3567017631089993e+00
179 2 5.6554795519949996e+00 3.0918496304460001e+00 5.1755553568529997e+00
180 2 3.3400937433490001e+00 2.7137156941409999e+00 4.8220512981189998e+00
181 2 8.5483372591489992e+00 1.1688776991050000e+01 8.7319190300040006e+00
182 2 1.0096161125809999e+01 9.9949893878380003e+00 9.1760980219490005e+00
183 2 1.4894496230490001e+01 1.1358058932220001e+00 1.6025029512829999e+01
184 2 1.4166557692700000e+01 1.5239817970550000e+01 1.5149828162860000e+01
185 2 6.5614220547550000e+00 5.1761569283370001e-01 1.4495602767079999e+01
186 2 6.2296553314349996e+00 2.6092743139339998e+00 1.3449531709080000e+01
187 2 1.2002107393940000e+00 2.9067828369650002e+00 7.3209500000609999e+00
188 2 2.1701285958150001e+00 3.1253729687840002e+00 9.4558566332169995e+00
189 2 8.8734190953980008e+00 4.7832902277749998e+00 3.0167413770930001e+00
190 2 8.8544433746469995e+00 6.6008455272489996e+00 4.5263665596970002e+00
191 2 6.9824984167749999e+00 1.4401031061770000e+01 1.2722954112020000e+01
192 2 8.4799403177350001e+00 1.2960594489560000e+01 1.1607783944139999e+01

Velocities

1 7.9331628121600000e+00 -2.3623221608190001e-01 5.0223975819789999e+00
2 4.2161547149939999e-01 1.4633298907820000e+00 2.9754008339369999e+00
3 5.3093908840469997e+00 2.9060599415209998e+00 4.0340344836449997e+00
4 8.9751789586010000e-01 -1.9523764633030001e+00 9.5499029244009996e+00
5 2.9659237885229999e+00 -3.7854375199070001e+00 -3.1113782868160000e+00
6 -4.1682733197030002e+00 -3.9465569951830002e+00 1.1428159798190001e+00
7 -1.5264598208739999e-01 -4.5684284032409996e+00 -8.5551131152609994e+00
8 2.4107076993869998e+00 -3.6876029730290001e+00 -1.8797430083250000e+00
9 2.8767016635470002e+00 -7.2080692360029996e-01 -1.8388253744500000e+00
10 -1.7075011185850000e+00 -5.1170860381859995e-01 -8.5018552283180004e-01
11 -9.1025263404180001e-01 1.6204818662350000e+00 5.0337422994900001e+00
12 9.6152705739240005e+00 4.1702464310530001e+00 -9.0018211697599995e+00
13 3.0813562325690000e+00 -3.7321576842219999e+00 2.5269500759930003e-01
14 4.3958097450759999e+00 -8.8549631678590002e-01 -1.6567797768979999e+00
15 -1.2931023335170000e+00 -6.8619723187780002e+00 5.4996820383060001e+00
16 1.1372306632780000e+00 9.0221614053109995e+00 2.0604741570730001e+00
17 -1.0453788424840000e+00 6.9156358381730003e+00 1.4558402277089999e+00
18 6.2122246828480003e+00 8.6649669977040000e-01 -1.0506766533309999e+00
19 3.0990134299920000e+00 -4.3465951038470001e+00 -3.9894946693989999e+00
20 2.1873936709569999e+00 9.3092449113440001e-01 1.8879275786050000e+00
21 -6.2333102818340000e+00 -8.1659128118540003e-01 -5.3360787136749996e+00
22 -3.5982167429610001e+00 2.4601137830119999e+00 -2.4071249477990002e+00
23 8.1508136622500000e+00 3.6816013090520001e+00 -9.1400226672630003e-01
24 -2.5412950252300002e+00 -5.8933590732159997e+00 4.9495581513170004e+00
25 4.3638765132210002e+00 1.8986303998930001e+00 -2.7560984868210001e+00
26 -1.2924849014299999e+00 -2.7650752101660001e+00 4.8357130001310002e+00
27 3.4746704631270000e+00 7.1469583037240003e+00 6.8032886668780002e+00
28 2.6579790732010000e+00 -2.6557685588640001e+00 1.6025266050860001e+00
29 -4.2710292508940002e+00 5.9132490220919998e-01 -1.2761220916250000e+00
30 -5.0057768336309998e+00 -5.1367119853099998e+00 -1.8788369855750000e+00
31 9.8478698805290001e+00 -3.9141409947080001e+00 6.4670921402860004e-01
32 -3.3266573853889998e+00 -5.7822901094620005e-01 2.4449094058159999e+00
33 2.9417232894619998e+00 -6.5641177632309997e+00 4.2689037569619996e+00
34 -4.2504835686859996e+00 -2.0533913434820001e+00 -3.8977962928080001e+00
35 -1.0404719612700000e+00 -1.3984011030140000e+00 2.6321459660280002e+00
36 -1.9709320476629999e+00 -1.0665490127230000e-01 -2.1722153908930002e+00
37 -5.7115328577550004e+00 -7.5133025406460003e+00 -3.4563015251659999e+00
38 -5.3356619171990003e+00 1.0714411199320001e+01 2.0000706727100002e+00
39 7.7581466650609998e-01 -9.2723288427799999e-01 2.1777619411639999e+00
40 1.0724429199620000e+00 -8.0039720960670007e+00 -1.6227220204130000e+00
41 1.0691422066539999e+01 5.7468939396399996e+00 -8.0424855901840004e+00
42 -3.6303067804030000e+00 8.5271099887880002e+00 -5.6635157959290003e+00
43 3.4313180116850002e+00 3.2215078674550002e+00 5.0536714132630003e+00
44 -8.3443896098549999e+00 1.8039484340340000e+00 -9.6473172051240006e+00
45 8.0628933358999999e-01 3.2733375444020001e+00 -3.8797078933139999e+00
46 5.1341930290839999e+00 2.0792199053230001e-01 7.1691810558539997e+00
47 -1.6060799645560000e+00 1.4256512023870000e+00 1.6069843653170000e+00
48 -2.9017133688880001e+00 -1.5135917761530000e+00 6.7485120067900004e+00
49 8.3899977344349992e+00 5.1767090511490004e+00 -6.3103198367709998e+00
50 -2.1582705767669998e+00 2.3610373202449999e+00 4.3343401862280002e+00
51 1.2961489334380000e+01 -3.0349137385999998e+00 2.6040330751009999e+00
52 1.8748774767820000e+00 -5.2810049892400004e+00 -7.4485407167690001e+00
53 -1.1067718103949999e+00 2.6153804189750001e+00 5.8178208973760004e+00
54 6.1257245997050003e+00 5.6051846412190001e+00 -5.0616351313739996e+00
55 -3.4638435705689998e+00 -1.5137734195140000e+00 -4.4229438269620003e+00
56 3.0379489799920001e-01 -1.0709578147280000e+01 -3.4299856324400002e+00
57 -2.2375869404149999e+00 -6.5088711112020003e-01 -9.9693548595960002e-01
58 -2.2824799385889998e+00 4.9999722107939997e+00 3.0983600520930001e+00
59 -3.4678440640230002e-01 7.7768714548590001e+00 2.8048278555740001e+00
60 -6.0411534862180005e-01 -5.8779621122290004e-01 5.5135491031910000e-01
61 -5.6279835277470003e+00 1.5556132751530001e+00 -6.6518192255719999e+00
62 2.5020526894930000e+00 -2.2337272491569999e+00 4.1231494254659999e+00
63 -7.1119501323409997e+00 -4.7809484614300004e+00 -2.6371739994810000e+00
64 6.0976577544820003e+00 2.9597869866150002e+00 1.0181644080810001e+01
65 5.6827860283599998e+00 5.7308037649069998e+00 -1.1227099327079999e+01
66 -2.5042041406390001e+00 -2.1384378636619998e+00 2.0584748785140001e+00
67 -2.4756256735059998e+00 -9.6561454578079997e-01 -5.6035129341239998e+00
68 1.4208321335620000e+00 -1.7768730087380000e+00 2.4056978455569999e+00
69 5.1030972235079997e+00 1.4129957729770000e+00 4.7956816805160001e+00
70 3.5157329881220001e+00 2.8596188813920000e+00 3.7329635775029999e+00
71 7.7009223882029998e+00 -4.0086865094219997e+00 1.1891970947310000e+00
72 -2.8829623909300001e-01 -5.8429627686499996e+00 -6.3394068320660002e-01
73 -2.5242616792439998e+00 3.6006807491989998e+00 1.7756837066980000e+00
74 4.4540263007450003e+00 4.7722977621269997e+00 -1.7614302703189999e+00
75 3.7883042389920001e+00 1.3635644502530000e+00 1.8548736104990000e+00
76 -3.6307128367710000e+00 -4.1547638028279996e+00 1.4057359546999999e+00
77 -7.4611725435669998e+00 3.0095429186759999e+00 -3.4716831410240001e+00
78 4.7374322432530001e+00 7.9248980735279995e-01 -2.1432079869440002e+00
79 -1.7322201861940001e-01 -7.7933821159400001e+00 7.9520462201989996e+00
80 -3.1784073942969999e+00 5.9533187381630004e+00 -3.1398637780520000e-01
81 6.6211192996400003e-01 -1.0235268368640000e+00 1.9739816536250001e+00
82 1.2123230680170001e+00 1.0291567795559999e+00 -4.3863058103960002e+00
83 4.1586968655129999e+00 3.4320596735529998e+00 1.4281386813490000e+00
84 -3.5601344773879999e+00 2.1001308311670002e+00 4.4081800930210002e-01
85 -8.1382591078110000e-01 -3.0981850190080000e+00 -5.7597943571750001e+00
86 -5.3672867255240000e+00 5.1390678007570001e+00 -8.5252403549779991e+00
87 -6.5694113115299997e+00 -4.4273093152309997e+00 -5.6357779077390002e-01
88 -2.8657858573400001e+00 3.4137199579610000e-01 -3.8146047264180001e+00
89 8.4161316871179999e+00 -8.6299705289789996e-01 4.2877680177090003e+00
90 -1.0369600226400000e+00 -2.9054998385970001e+00 5.1823491063829996e+00
91 3.2252685773169998e+00 -5.0700601632150004e+00 -2.3181021834130000e+00
92 -4.0871666666169997e+00 7.3651886200990004e+00 9.1754122263059994e+00
93 -6.6215608244160000e+00 -6.5933513556719996e+00 5.5770879380910001e+00
94 -5.0687781418080000e+00 2.8344136058810001e+00 3.1096759673999999e+00
95 1.0041704203169999e+01 7.2335827176669998e-01 -7.2306048636989995e-01
96 -5.9991748906650004e+00 -7.4892601172910001e-01 -4.8460820212120002e+00
97 2.8202617234830001e+00 8.3502971669769999e-02 -4.0354624862090001e+00
98 -5.2427156930000001e+00 -3.6498235834910000e+00 1.4537626223410001e+00
99 -1.3966718734029999e+00 -3.2426463742929998e+00 -7.5309674663450003e-03
100 -3.9138226361349998e-01 3.8859523558300002e+00 -5.2865918230720004e+00
101 -3.4648917209310000e+00 3.3941710522690000e-01 -1.2184292575280000e+00
102 4.1947294735570004e+00 4.1245933687149998e+00 4.2142570064209997e+00
103 -6.7143518976210004e+00 -2.7005971802500000e+00 -3.7056464601600001e+00
104 5.5530149760310001e+00 -3.4292444348880000e+00 5.4855028854850003e+00
105 -1.1201272341480000e+00 9.2169776855959995e+00 1.1607649456950000e+00
106 -1.7964898862759999e+00 6.7782545381050001e+00 -1.3380721463640000e+00
107 4.3487768757750001e+00 -6.0294498470750000e+00 2.7606830598390002e+00
108 2.7318808022250002e-01 -4.8164769002480003e+00 6.8165514536170004e+00
109 -9.8733718416299998e-01 5.3486677663689997e-01 -8.3998098088099997e+00
110 -1.4426125640609999e+00 2.0920309720830002e+00 -9.1284202334509992e+00
111 -3.8216068499650002e+00 1.9806202125579999e+00 1.3475044035420001e+00
112 -4.8808818313310001e+00 -5.0245584954720002e+00 -1.2280994466810000e+01
113 -4.8098281937339999e+00 -6.9343492026319997e-01 -1.0675270255600000e+00
114 5.6124027962609997e+00 8.7201350544010003e-01 5.9659701852120000e+00
115 3.0487520125340001e-01 -7.7893785135970006e-02 2.4362887449319999e+00
116 2.8789779558710000e+00 -2.4952106846100000e+00 -5.0090287386060002e+00
117 -2.1921656796260001e+00 6.4761338083600002e+00 -3.8516622777070002e+00
118 -3.3737407727869999e+00 -2.4994857797590000e+00 6.0331398861720002e-02
119 -4.5332963625689997e+00 2.5106206975099998e+00 6.4470378974789999e-01
120 -1.4542736699540000e+00 -3.0608161142610002e+00 1.2240627292080000e+00
121 1.1452159499970000e+00 -4.2744761465760002e+00 1.2602828312610001e-01
122 3.0899293865200002e+00 -4.6365849060039999e+00 -2.8758130748830002e+00
123 -4.3030697201199999e+00 3.9694067930140000e+00 -1.7385495823319999e-01
124 5.6286802573759998e+00 -5.0368604666310004e+00 4.7452849627909996e+00
125 2.8478420966210001e+00 1.5025713637920000e+00 4.3343993041589997e+00
126 -1.9837995866430000e+00 5.7064145383250002e+00 6.1207061820770001e-02
127 5.9057044824769998e+00 1.8165210857990000e+00 -6.7943985389410004e+00
128 -8.0314154504470003e-01 -1.9975241215960000e+00 5.1645335953030003e-01
129 -3.4743011210719998e-01 -2.0654185877210001e+00 -8.2583570326199995e-01
130 -5.4392846168709996e-01 -3.3947553683820000e+00 8.3753916130399997e-01
131 -7.0195139827999997e-01 -2.6757595524959998e+00 1.0151739312749999e+01
132 -2.6860724116260002e+00 -2.2428418674040000e+00 -2.4903516851890002e+00
133 -1.4617120481340000e+00 -3.3325821495720001e+00 -1.2230958168649999e+00
134 2.4856845428519998e+00 2.8098249044240000e+00 -9.7358576129359997e-01
135 2.2012860008240001e+00 -6.4161574422839998e+00 4.9086428633879997e+00
136 -4.6431237763519997e+00 1.6545619863579999e+00 2.6002143303450000e+00
137 3.8140215755750000e+00 -5.4111268644899999e+00 -2.9858201545599998e+00
138 2.2775543142750001e+00 -4.4296468079410003e+00 5.9913099831759997e-01
139 -4.1225182812399996e+00 -7.6343433591919996e-01 3.3131933280710002e+00
140 -3.0262324427710002e-01 2.1598643196429999e+00 -5.5223790785180000e+00
141 -4.1622527890919997e-02 -1.6639126414340000e+00 -4.6369121718799997e+00
142 2.6009935398259998e+00 -8.7413356439750007e+00 1.4863724947700001e+00
143 2.4749003814349999e+00 3.6219119584700001e+00 -5.7712061121560003e+00
144 -1.0189373459950000e+00 1.0857047971980001e+00 2.0046704750959998e+00
145 -1.0027940509950000e+00 2.1210661527340000e+00 2.9953127859520001e+00
146 -8.4311090812529998e-01 -2.3436530426609998e+00 3.8717876305860002e+00
147 -8.6880619771679992e+00 -5.2924087167879996e-01 -1.7430118793930001e+00
148 -6.7320172601020003e+00 1.7792813810550001e+00 7.2462255683650001e-01
149 1.5734528609359999e+00 -5.1162953981449997e+00 5.5305666024190003e+00
150 2.1502128537980001e+00 5.0542952168440003e+00 -6.7647756835259996e+00
151 2.6964291589770002e+00 6.1034892685040001e+00 9.8442031940560000e+00
152 1.5076176258390001e-01 -2.7416172615740000e+00 2.5219055431410000e+00
153 -7.8655742215669999e-01 -6.4414595101880003e+00 -4.2661427683920001e+00
154 9.2563242339700000e+00 1.4908109818030000e+00 2.6993625434049999e+00
155 -1.8015488583640000e+00 -2.3551464816549998e+00 -8.1580543765930003e+00
156 -5.0619105743270003e+00 6.6253692872329994e-01 1.9782348799180001e+00
157 5.5100104201800004e+00 2.1975493128440000e+00 -1.9487372717560000e-01
158 2.4127361850929998e+00 4.7898660826550001e+00 3.7980184295510000e+00
159 -5.1720314472469999e+00 5.3509677033170000e-02 -1.0842767950620000e+00
160 3.4411335115219999e-01 -2.6581000639450001e+00 -4.7321602765589998e-01
161 2.0118031129220002e+00 1.5765294328090000e+00 7.1203000018129998e+00
162 4.1952554586459998e+00 4.3172925837670002e+00 4.0377746818800002e+00
163 -5.0841044091130003e+00 1.2041770622750001e+00 -4.1353386822019997e+00
164 2.2708765028409998e+00 2.1745469646200002e+00 -5.0963958702039998e+00
165 -5.3120500415240004e+00 2.2163918529340001e+00 3.3411366263810001e+00
166 -4.5000607506970001e+00 2.0143193861899999e+00 5.3725496502350003e+00
167 2.3685923353980001e+00 5.5861986452040002e-01 -6.9810593526530003e+00
168 7.8239763835309994e-01 -1.5126015442030001e+00 7.2025401636889996e-01
169 -3.0286208995080002e+00 2.4203926519030001e+00 1.4062292054159999e+00
170 -1.0690421663900000e+00 -8.3165560368490006e+00 2.8818250623230002e+00
171 2.8497136539689999e-01 -4.1049693599459998e+00 -5.6101243967320000e+00
172 2.8952935845669998e+00 1.9277321193960000e+00 -8.9158117037370008e+00
173 -1.1227033296460001e+00 4.7912426039379996e+00 -2.4152694121640002e+00
174 -6.2670160600009996e+00 -4.2693460860909999e-02 -3.8524999378649998e+00
175 2.6721355292850002e+00 -9.4127819847960004e-01 4.9559444903270000e+00
176 -4.8624644010380003e+00 7.0581189868110004e+00 6.7774197557729998e+00
177 8.9237829972020002e+00 6.2092827159509998e+00 -2.0150487634930001e+00
178 2.2181990860599998e+00 -9.7055447916519999e-01 2.3618166514109999e+00
179 4.8226035048949996e+00 -6.1957429480739998e+00 1.6119812536200000e+00
180 -5.0313948602230001e+00 -1.1583171565770001e+00 5.2360194406770000e-01
181 1.7610567854190000e+00 4.9303159350449999e+00 -3.8053034504149998e+00
182 -4.7781082590989996e+00 -2.0238692853830001e-01 7.5421198000759997e+00
183 3.8135294357499999e-01 7.0883399239950004e-02 -1.5821643266080001e+00
184 -7.9922293630669996e+00 -6.8496495593630002e-01 1.8017365189400001e+00
185 3.1221272699940000e-01 1.9088536371180000e+00 -2.8415999935840000e+00
186 5.7376655995720005e-01 -2.9523372522160001e+00 2.0085672594310000e+00
187 4.9518127161540004e+00 2.1069407182950002e+00 -3.7140898003650000e+00
188 -4.6436268186680003e+00 5.1425439897869998e+00 3.6499020487829997e-01
189 -3.3623833644529999e-01 5.8762092974659996e+00 -2.3064795762129999e+00
190 -1.6940753115730001e+00 -2.6729448178699999e+00 4.3620005918600002e+00
191 -6.7963050648710004e+00 7.5328280590209995e-01 4.4854698317380003e-02
192 6.6426817829340001e-01 2.6290127387740001e+00 2.0461943055580001e-01
