LAMMPS data file extracted from NVT dump, timestep 1540000, units metal

192 atoms
2 atom types

0.0000000000000000e+00 1.6195563468200000e+01 xlo xhi
0.0000000000000000e+00 1.6195563468200000e+01 ylo yhi
0.0000000000000000e+00 1.6195563468200000e+01 zlo zhi

Masses

1 12.00000000
2 16.00000000

Atoms # atomic

1 1 3.3583943194420001e+00 1.0453203198550001e+00 9.2857083633819997e+00
2 1 8.3541468249950004e+00 4.3707349911269997e+00 9.8718081518789997e+00
3 1 1.1790851231760000e+01 8.7798255144810007e+00 5.0166556209020001e+00
4 1 7.3545969711180001e+00 1.8296229972150000e+00 1.0222051970420000e-01
5 1 1.3582389291209999e+01 7.1096304383189999e+00 1.0379746965170000e+01
6 1 4.7314306406749997e+00 4.4360101757730002e+00 7.2204545501360000e+00
7 1 1.7139451422620000e+00 6.4007130615790002e+00 8.8965673557000002e+00
8 1 1.7317791962230000e+00 1.1063620120720000e+01 5.4145697846100003e+00
9 1 1.2482974138299999e+01 2.6067624248389998e+00 1.1574216984890001e+01
10 1 1.5510471531549999e+01 3.7030607005660001e+00 1.4460507273830000e+01
11 1 1.0867808434760000e+00 1.5385072128430000e+01 3.5211180159220001e+00
12 1 1.3453362471189999e+01 9.7614535521390000e-01 1.5755813697070000e+01
13 1 6.9477215845130003e+00 1.4254950399660000e+01 1.0561368871450000e+01
14 1 1.2175755644100001e+01 1.4931642835380000e+01 1.2344094157060001e+01
15 1 1.4927077195100001e+01 9.6976567514689993e+00 8.1124665225280008e+00
16 1 1.5730130701520000e+01 1.0927804683520000e+01 1.2297408845000000e+01
17 1 1.2869464068870000e+01 1.3833431309799999e+00 3.9789364369030000e+00
18 1 1.4698088480219999e+01 7.1214169379319996e+00 3.9267415073239997e-01
19 1 1.4463330984640001e+01 1.2467158650949999e+01 4.3371811526990003e+00
20 1 4.2290661397629998e+00 2.8714958521640002e+00 1.9077781201490001e+00
21 1 1.3244817986619999e+01 5.9338413157109997e+00 4.2228546895349997e+00
22 1 1.0403454770310001e+01 2.6869080485420000e+00 6.4510685988749996e+00
23 1 1.1972019741220000e+01 4.2419688939900002e+00 8.0830445695819997e-01
24 1 6.1051480678149996e+00 8.0908471004979994e+00 9.7139270274899996e+00
25 1 2.5559981061990000e+00 1.3596186883070001e+01 1.1378385518869999e+01
26 1 5.9331267132540004e+00 6.2549830370009998e+00 3.6211627535550002e+00
27 1 1.1019546952460001e+01 1.2613191146360000e+01 4.1474639733360004e+00
28 1 1.6254262442990000e+00 1.1491180111669999e+01 1.1231303903470000e+00
29 1 2.6031668138140001e+00 1.0023118207140000e+01 9.3893047017050009e+00
30 1 4.4485299455899998e+00 1.0054261389490000e+00 5.2364087493260003e+00
31 1 1.0183063475859999e+01 2.0773694791209998e+00 1.3853906111510000e+01
32 1 2.6682088553049998e-01 2.9993718673159999e+00 2.4325348442419998e+00
33 1 6.3434365239770001e+00 5.5559153564840003e+00 1.4684039983920000e+01
34 1 1.1853291692499999e+01 1.1327794916669999e+01 1.0322486346150001e+01
35 1 1.4634191574190000e+01 3.4444363361349999e+00 7.8697837813030000e+00
36 1 9.0914112453690006e+00 1.3825471094160000e+00 3.6922023485989999e+00
37 1 1.0695159326600001e+01 7.6906524316790001e+00 8.5127642506250005e+00
38 1 1.5863154508770000e+01 3.6357215288250000e-01 6.0105888660879998e+00
39 1 4.6430614157149996e+00 1.5127620571230000e+01 1.6013849240140001e+01
40 1 1.4725659594220000e+00 6.4106457058980002e+00 8.2966387769320005e-01
41 1 1.2947134102980000e+01 1.5208998523189999e+01 8.4056905746999995e+00
42 1 1.0158948389810000e+01 -4.6667411624800002e-02 9.6409873440629994e+00
43 1 4.3087619980199996e+00 9.1226379183820008e+00 1.0926446485640000e+00
44 1 1.6055599640320000e+00 9.0801042186110004e-01 1.5088564057970000e+01
45 1 8.9332891634429998e+00 1.0952682172790000e+01 1.2324971963539999e+01
46 1 1.2640895394319999e+01 1.1199054120210000e+01 1.4883320119650000e+01
47 1 5.3408110720869995e-01 1.3816714653540000e+01 8.4044046418389993e+00
48 1 1.0138937863980001e+01 7.3702414826459997e+00 1.3305017486380001e+01
49 1 9.1919643994189997e+00 5.3988394435189999e+00 1.9348821441660000e+00
50 1 8.0797931431539993e+00 1.5954392943289999e+01 1.3278831427509999e+01
51 1 5.7203765622229996e+00 1.1839456598540000e+01 1.3816409133660001e+01
52 1 9.0649639164119993e+00 1.0753094388999999e+01 6.9221799970870004e+00
53 1 1.6235387179069999e+01 8.9267865188270001e-01 1.1347202711840000e+01
54 1 8.2911100228480006e+00 1.0325950835810000e+01 1.5798528539639999e+01
55 1 5.5488535720990004e+00 1.3167447293500000e+01 7.1931381691569998e+00
56 1 4.2734393094990004e+00 2.7259784400129998e+00 1.3273459580190000e+01
57 1 5.6972744225629999e+00 1.0963966886170001e+01 3.3701415004120001e+00
58 1 1.1838187797940000e+01 1.4316557764990000e+01 8.7790753312350001e-01
59 1 1.1732811688480000e+00 4.9732859560620000e+00 5.4102575783029998e+00
60 1 1.5647389339189999e+01 1.3847930024500000e+01 1.5910347077930000e+01
61 1 4.3965511128730000e-01 7.0053895871099998e+00 1.3005506969070000e+01
62 1 1.1522227435530001e+01 8.4142856603730003e+00 1.4074025037180000e+00
63 1 3.0061021487369999e+00 9.7079825691139998e+00 1.3591107102570000e+01
64 1 6.9543063333879998e+00 8.5168067017979998e-01 8.1333823576349999e+00
65 2 3.2772492007960001e+00 7.9421837598019995e-01 1.0441691992470000e+01
66 2 3.5064641230580000e+00 1.2372267693140000e+00 8.1158500031460008e+00
67 2 7.8503850592009998e+00 5.0041880931789997e+00 1.0712960572809999e+01
68 2 8.7024974947809994e+00 3.7942932322109999e+00 8.8958246936640002e+00
69 2 1.2919863462820000e+01 8.8858691106919991e+00 5.2097095545930001e+00
70 2 1.0643072529890000e+01 8.7302932590070004e+00 4.7505485337359996e+00
71 2 7.1128767655939997e+00 1.2575574075400000e+00 1.0797076559420000e+00
72 2 7.5991716781990002e+00 2.3422601117549999e+00 1.5256056360580001e+01
73 2 1.3533896119220000e+01 8.1744662593170005e+00 1.0895085424319999e+01
74 2 1.3485137975940001e+01 6.0231456891360002e+00 9.9035054264800007e+00
75 2 5.8000750943719996e+00 4.6819820383839996e+00 6.9017306732739998e+00
76 2 3.5942108056620001e+00 4.1149580781979997e+00 7.5264099099650004e+00
77 2 2.5554810513369999e+00 6.4982808768300000e+00 9.7390000014639995e+00
78 2 9.4413663477929999e-01 6.2680011857969999e+00 8.0119299598779996e+00
79 2 1.2692763898720001e+00 1.0296057498830001e+01 4.6469922968809998e+00
80 2 2.3231675792619999e+00 1.1872191341030000e+01 6.0947303663219996e+00
81 2 1.2157815251340001e+01 3.0812392133570001e+00 1.0538010536560000e+01
82 2 1.2683944871340000e+01 2.0840259558440000e+00 1.2621017447720000e+01
83 2 3.4659789085960002e-01 3.6475358686260000e+00 1.3924579885640000e+01
84 2 1.4548879991520000e+01 3.9339469249560000e+00 1.5039637033429999e+01
85 2 6.4831129275620003e-01 1.4328723677770000e+01 3.7368336825460000e+00
86 2 1.4879677641669999e+00 2.7421820011550002e-01 3.2431304313120002e+00
87 2 1.4028508559360001e+01 5.8110344462569996e-01 1.4777220871030000e+01
88 2 1.2943747494149999e+01 1.2118533362590000e+00 6.0116166936110005e-01
89 2 7.5377283456440001e+00 1.3854875036559999e+01 9.5982507074509993e+00
90 2 6.4423159280169999e+00 1.4904168805499999e+01 1.1381536125149999e+01
91 2 1.3126435394330001e+01 1.5323938356950000e+01 1.1822047261240000e+01
92 2 1.1244283834040001e+01 1.4422409032110000e+01 1.2849988456960000e+01
93 2 1.4574338841719999e+01 1.0601267706030001e+01 7.4533623007400003e+00
94 2 1.5414493500300001e+01 8.7801074842339997e+00 8.5877278097059992e+00
95 2 4.4079496673460000e-01 1.0815882593540000e+01 1.1596353234420000e+01
96 2 1.4818471423929999e+01 1.1062333023990000e+01 1.2987492684319999e+01
97 2 1.3663332446429999e+01 2.2163078746760001e+00 3.8302740466520002e+00
98 2 1.1960282639570000e+01 6.1926577510409997e-01 3.9987006079400000e+00
99 2 1.4373481181700001e+01 8.1028608421390000e+00 1.6062449239530000e+01
100 2 1.5108045246330001e+01 6.0855871202050000e+00 8.1725821900939999e-01
101 2 1.4640448164160000e+01 1.1506437321560000e+01 3.7245684554879999e+00
102 2 1.4279967347170000e+01 1.3391298757350000e+01 5.0374763385160000e+00
103 2 4.5755619417800002e+00 3.9720283397210001e+00 2.0945622538760000e+00
104 2 3.7440765366509998e+00 1.7989419140570000e+00 1.8620486964940000e+00
105 2 1.2116026307989999e+01 5.9566615476780003e+00 4.5189841180529999e+00
106 2 1.4390495844669999e+01 5.8421716639000003e+00 3.8971819480250001e+00
107 2 1.0295822002210000e+01 1.5125857353490000e+00 6.4059919637789999e+00
108 2 1.0401564960909999e+01 3.8508469264429999e+00 6.3843866133239997e+00
109 2 1.2552658023039999e+01 4.5155613196379996e+00 1.8345750607539999e+00
110 2 1.1480854369950000e+01 3.9882912658350000e+00 1.5980081284480001e+01
111 2 5.5438067652500003e+00 7.5564288010859997e+00 8.8101427883539998e+00
112 2 6.6101661806759999e+00 8.6605730785140000e+00 1.0621709532960001e+01
113 2 2.5916312283680001e+00 1.3263945249790000e+01 1.0246369541080000e+01
114 2 2.3959111754840001e+00 1.4013354500209999e+01 1.2435324598950000e+01
115 2 5.1452977552129999e+00 6.4827983360779999e+00 4.4685491266880000e+00
116 2 6.7230775124350002e+00 6.0031978146500000e+00 2.7775859638160001e+00
117 2 1.0812114729590000e+01 1.3583899870930001e+01 4.7750491564899997e+00
118 2 1.1180521034110001e+01 1.1682586667810000e+01 3.4611302843399998e+00
119 2 1.1533863474210000e+00 1.1145469402660000e+01 9.6431049007369998e-02
120 2 2.1884578553070000e+00 1.1858100467770001e+01 2.0699616155710001e+00
121 2 3.1353009451050000e+00 1.0255521710000000e+01 1.0377437509400000e+01
122 2 2.1307346519460002e+00 9.6464318309859998e+00 8.4088699674320004e+00
123 2 5.0196779748260001e+00 2.0297299364349999e+00 5.1047061726420004e+00
124 2 3.8443228772200002e+00 -8.8490436529989995e-03 5.2472448393509996e+00
125 2 1.0384401251410001e+01 1.0396810571699999e+00 1.4382246790010001e+01
126 2 9.9384116845190000e+00 3.1005907233490002e+00 1.3329830860490000e+01
127 2 1.0575949782330001e+00 3.3581922632570000e+00 3.2220071593820001e+00
128 2 1.5736442953599999e+01 2.5569473583389999e+00 1.6017574514590001e+00
129 2 6.1440901456979997e+00 5.0019658654350003e+00 1.3650415957180000e+01
130 2 6.4365385977280001e+00 6.0183272448079999e+00 1.5782893198409999e+01
131 2 1.0864940708910000e+01 1.0850363120480001e+01 9.8812610922879998e+00
132 2 1.2743623796800000e+01 1.1897609896000001e+01 1.0857964801160000e+01
133 2 1.5438319161590000e+01 2.5902718386390000e+00 8.1543313376250008e+00
134 2 1.3875966563600000e+01 4.2411402560060001e+00 7.4814039762129996e+00
135 2 8.4398022038560008e+00 3.9787109992000003e-01 3.9026653694240001e+00
136 2 9.8800669605010008e+00 2.2531578766739999e+00 3.4534654345570002e+00
137 2 9.7276610638710004e+00 7.2468708284540000e+00 9.0279422402969995e+00
138 2 1.1694730800829999e+01 8.1170502563530000e+00 8.0211508626980006e+00
139 2 8.3091375489510000e-01 4.4305466132130000e-01 6.1737055493659998e+00
140 2 1.4679846311360000e+01 3.3522771337860002e-01 5.8726332380080004e+00
141 2 4.2921005737700000e+00 1.4348677786300000e+01 6.0475686869209999e-01
142 2 5.0107271618480000e+00 1.5947861452000000e+01 1.5264168505870000e+01
143 2 1.5684383567939999e+00 5.2934224381349999e+00 5.3714289974850005e-01
144 2 1.4482337225360000e+00 7.5458303274300000e+00 1.2166755280749999e+00
145 2 1.2760464152950000e+01 1.4084401987040000e+01 8.1314783341960002e+00
146 2 1.3143144322820000e+01 1.1616918960040000e-01 8.7401153720210001e+00
147 2 1.0622846117410001e+01 4.9607134880140002e-01 1.0545886429279999e+01
148 2 9.6442234641579994e+00 1.5695098209239999e+01 8.7049381015920009e+00
149 2 4.1903664753439998e+00 9.7548423272929998e+00 1.0399662255519999e-01
150 2 4.4688424356290000e+00 8.6050168942519996e+00 2.1342567740499998e+00
151 2 1.7376437516280001e+00 1.2450844759640001e+00 1.6204219796770001e+01
152 2 1.5225109394450000e+00 6.2518999907249995e-01 1.3951753877200000e+01
153 2 9.2892568343189996e+00 9.8148136548559997e+00 1.2278460495730000e+01
154 2 8.6205536638800009e+00 1.2060400283730001e+01 1.2423397274699999e+01
155 2 1.1875999412630000e+01 1.1145381246520000e+01 1.4010106046100001e+01
156 2 1.3409956943259999e+01 1.1196535418730001e+01 1.5765547894950000e+01
157 2 1.2228646381070001e+00 1.4488159682390000e+01 7.7414500770750001e+00
158 2 1.5910530170019999e+01 1.3138214261340000e+01 8.8905728640269999e+00
159 2 1.1051929490070000e+01 7.6955822158549996e+00 1.3943158481479999e+01
160 2 9.1938159308260001e+00 7.0554987739280000e+00 1.2700732646780001e+01
161 2 9.8723569965519999e+00 6.1618207071209996e+00 2.5076434773949998e+00
162 2 8.6864655713809995e+00 4.5220790366379999e+00 1.3091682405780001e+00
163 2 8.1118392649089994e+00 7.2612415553980003e-01 1.2621890842470000e+01
164 2 7.9093771927669998e+00 1.4998521027500001e+01 1.3920894083160000e+01
165 2 6.2300658672890004e+00 1.1005543611169999e+01 1.3126796950039999e+01
166 2 4.9944089457140004e+00 1.2491108767829999e+01 1.4481656273080000e+01
167 2 8.3047058287480002e+00 9.9788409961299998e+00 7.3461775535980003e+00
168 2 9.8839880539730007e+00 1.1479506444529999e+01 6.5846890119190000e+00
169 2 8.2536285605240001e-01 1.6271078418940000e+01 1.1085727625950000e+01
170 2 1.5482264639140000e+01 1.7792694862559999e+00 1.1580426952290001e+01
171 2 8.9688107166450006e+00 1.1257894779040001e+01 -1.4449836723650000e-01
172 2 7.7467358294849999e+00 9.3563770339760008e+00 1.5460498160609999e+01
173 2 4.8503746581830001e+00 1.4009370639589999e+01 7.6305283133649997e+00
174 2 6.2391550320770000e+00 1.2402697104250000e+01 6.5963636694350001e+00
175 2 3.6265183690920000e+00 3.3134435132819999e+00 1.4079999400560000e+01
176 2 4.9079905855060000e+00 2.0477045719150002e+00 1.2606870913890001e+01
177 2 4.7844171887569997e+00 1.0766045474149999e+01 4.1421304200930003e+00
178 2 6.4531117215969998e+00 1.1301946974670001e+01 2.5553443249969998e+00
179 2 1.1665173652809999e+01 1.4528273652630000e+01 2.0347989824070001e+00
180 2 1.1988468609440000e+01 1.4178550786840001e+01 1.5926718598850000e+01
181 2 2.0234093415380001e+00 5.6679406025520001e+00 4.9717477386580002e+00
182 2 3.1530100104999997e-01 4.3500501101630000e+00 5.8703005752389998e+00
183 2 1.5519389595810001e+01 1.3350664694000001e+01 1.4843620098920001e+01
184 2 1.5663841156000000e+01 1.4381664581830000e+01 7.4540987168880002e-01
185 2 7.9246302396989998e-01 7.5367473520420001e+00 1.3993684376790000e+01
186 2 2.6183419413560000e-01 6.4502817918090001e+00 1.2005643692540000e+01
187 2 1.2361259767629999e+01 7.5704222737129996e+00 1.6684002543600001e+00
188 2 1.0746083203400000e+01 9.1886317187270006e+00 1.0580771405350000e+00
189 2 3.6800348305760000e+00 8.7491213428990005e+00 1.3763673738180000e+01
190 2 2.1017402948220001e+00 1.0531874908720001e+01 1.3537919807200000e+01
191 2 7.0166328038919996e+00 5.9078058364880004e-01 7.0020990324339998e+00
192 2 6.7251430702309998e+00 1.0510864519200001e+00 9.2543647821189996e+00

Velocities

1 2.7062002202879998e+00 2.9451303097279999e+00 6.7868542839049995e-01
2 -2.0990218918090000e+00 4.5217366967599997e+00 8.9957173738650003e+00
3 -6.9873017395349999e+00 -1.7760531315340000e+00 -2.9198753541890001e+00
4 8.1875377776540006e+00 1.0209152597400000e+00 6.3677892069229998e+00
5 -4.9484226750420002e-01 3.1621344452450000e+00 9.1897997793340007e+00
6 -3.5660193917540002e+00 1.2776410261390001e+00 -4.3238864596370004e+00
7 -3.0377069796199998e+00 3.7151670754830000e+00 3.3812538158650002e-01
8 -3.1259113485129997e-02 -2.6605790374509999e+00 1.1215575682790000e+01
9 -1.7866028818660000e+00 -9.0810464143439997e+00 -9.2272673119759996e-01
10 7.6717045184290000e-01 -3.6566124480100002e+00 1.3751000763060001e-01
11 -4.0896718326419998e+00 1.3319207019860000e+00 -3.7327713894110000e+00
12 8.5813236494300007e+00 3.5018607358310000e-01 -4.8296819837699996e+00
13 4.4016043813540001e-01 8.1376467700230004e-01 6.6340298348519999e+00
14 3.2553045831050000e+00 -3.8327957002820001e-01 2.9632880764980002e-01
15 -3.1784476296749999e+00 3.9800243445189998e+00 -5.9904812100909999e-01
16 4.2348250502150000e+00 2.5944435140470001e+00 3.5874921927529999e+00
17 7.8104783225130003e-01 -3.9904067812749999e+00 -6.0262619573920002e+00
18 -6.5988570528019999e+00 -6.9411688737350001e+00 5.2250824945750001e+00
19 -9.7436642136540002e+00 -2.4069135641399999e+00 -4.4299797423629999e+00
20 -2.1125063639310002e+00 -5.8478957172479999e+00 -2.0525418689419999e+00
21 -1.4710137803520000e+00 -4.8669792723420002e+00 1.5604241799330001e+00
22 7.3237065846030003e-01 1.0951796158460001e+00 5.8662066316820005e-01
23 1.8920981850840000e+00 1.6343079628570001e+00 4.0035045784270001e-01
24 -1.6201755808880001e+00 -6.0501130535850001e+00 -3.2803329824719998e+00
25 -2.8280034414120001e+00 -2.2537629523090001e+00 -3.4815450924500002e+00
26 7.0173795619749999e+00 -1.3026385373089999e-01 -7.9730382101209996e+00
27 3.5201008795269999e+00 1.5147297182570001e+00 4.9307749493299999e+00
28 3.4495436414479999e+00 -6.1258374234299995e-01 -1.5723445224170001e+00
29 -2.7089557069380001e+00 3.3120336677950002e-01 5.7571054814159996e+00
30 -4.4065922248599998e-01 1.8287198842629999e+00 1.8063004592170000e+00
31 2.1151716225990000e-01 -1.6328491848850000e+00 4.9357282921129997e+00
32 7.7284902026479996e+00 1.4752387742240001e+00 2.3747901340420001e+00
33 -1.1391767028340001e+00 -3.8810248999789998e+00 1.9786954527009999e+00
34 9.2727815024009992e+00 4.3729280402280004e+00 -7.2527907708710004e-01
35 2.3062199589689998e+00 5.0714653763179998e+00 -7.6105577681689995e-01
36 6.0612126742790000e+00 3.5741107692590002e+00 -3.6150491905950002e+00
37 7.3588389954839997e+00 3.6658814553819998e+00 -3.8059630918459999e+00
38 4.7223286823219999e+00 4.2160762338279998e+00 3.4487609434270001e+00
39 3.7027471836580000e-01 -7.0703249680690003e+00 1.9547187838840001e+00
40 -4.0231739613619997e+00 -7.3192751820150004e-01 -2.4562326206859999e+00
41 1.4041380033560000e+00 8.0281905515050003e+00 -8.2610616080800003e-01
42 -5.0704163215460003e+00 -4.8871722788970002e+00 -5.9651798176710003e+00
43 1.4236853575160000e+00 2.7021090097470002e+00 -4.9354874729259999e+00
44 1.2907883477260000e+00 2.0465898106140001e-01 3.0214628072280001e+00
45 6.2202858130159999e+00 -5.1943420082449998e-01 -7.6531759074099996e+00
46 -4.3725003949060000e+00 -4.7413767780090001e+00 8.1242397114249998e-01
47 -4.1531932421619997e+00 1.0166121062620000e+01 -6.8120558325699998e-01
48 -7.5564345510359995e-02 1.9340329882489999e+00 -4.1968263264040004e+00
49 -8.2351961940319995e+00 5.5743568854970000e+00 -2.3823084099249998e+00
50 -5.1159082193880003e+00 -5.4777815903290001e+00 6.4057184486340004e+00
51 -1.6092527521350000e+00 3.1282241292730002e+00 -4.9414617031340002e+00
52 1.8217342295650001e+00 2.8551424815480000e+00 -3.6655672951830001e+00
53 5.3743798071970001e+00 5.1303305964729997e+00 4.3508630401510002e+00
54 1.3600564120250000e-01 -2.5192636963310000e+00 3.1826643051820001e+00
55 -2.8237196578020001e+00 -1.4235823694790000e+00 7.8422618601950003e+00
56 7.4146278661189999e+00 3.7271422803290002e+00 1.5695459822990001e+00
57 4.9022005835079998e+00 -4.7262660719770000e-01 -6.0223440557729997e-02
58 -6.1566800528020005e-01 -9.9030157144679998e-01 1.0481323716060000e+00
59 3.4596114884640001e+00 1.6416356493260000e+00 5.1093217062390002e+00
60 -2.4414412529020000e+00 1.0431656153530000e+01 -5.0333925837480002e+00
61 -6.9674306378109998e+00 2.4729402363610000e+00 -3.8375929037410001e+00
62 -5.9932135766039996e-01 -1.8871698257870000e+00 4.2146988956870004e+00
63 -1.0947620773069999e+00 -1.3342551381729999e+00 8.8757197293290009e+00
64 8.5573422319269998e-01 -7.8830449852060003e+00 4.1107028260399998e+00
65 1.7235364020110000e+00 1.2834408654459999e+00 1.8968778589360000e-01
66 1.0088296717330001e+00 -4.6391063493829998e+00 -2.5067421642709999e+00
67 2.4757084345950000e+00 -2.2723485485050001e+00 -3.8848115314609999e-01
68 -2.1557032903270001e-02 1.5385698550460001e+00 2.7796608902319999e+00
69 -4.5891551547710003e+00 -5.1167966490049999e+00 -1.4368693687709999e+00
70 3.1959990874800002e+00 -1.7339737828599999e+00 1.9694008439130000e+00
71 -2.9995983335640002e+00 -1.2938852432770001e+00 6.6535870535060004e+00
72 1.0624217413679999e+00 -2.0625016032910000e+00 -5.1203652287740002e+00
73 -3.4864647331560001e+00 -2.7454289299400001e+00 5.0922489953100003e+00
74 1.5091928858810000e+00 -1.2361089102170000e+00 -6.8699309345339996e+00
75 -1.5394023929370000e+00 -3.9071266198060002e+00 4.4508753802539998e+00
76 -3.7194620914499998e-01 1.0884770727210000e+00 2.2401938645959998e+00
77 -2.4725803351210001e+00 4.1983520075340000e+00 1.5119930103860000e+00
78 1.6391491711980000e+00 8.3591894838149994e+00 1.2919870707129999e+00
79 -4.6067179791940003e+00 -3.5431921355679998e+00 1.3953395317810000e+00
80 -3.0904177620610001e+00 4.2298031290119997e+00 -7.8968441095299999e+00
81 -5.3972951340359998e-01 -3.8447614414659999e+00 -2.8844173325079998e+00
82 -2.2562306870810001e+00 -1.4112849781460000e+00 -3.2327031860609998e+00
83 -3.8436935783930002e+00 -5.6719479245270001e+00 4.3526631874349997e+00
84 1.8421987673880000e+00 4.4409827122910004e+00 3.9349593680049999e+00
85 2.2914560419510002e+00 6.4797054398810001e+00 6.4481645675800001e+00
86 -5.7821127534119998e-01 1.7147762576009999e+00 4.9115999365210002e-02
87 1.6936280941380000e+00 -2.2812441100399998e+00 -1.7865684053060000e+00
88 1.0994355516710000e-01 1.2907452238429999e+00 -5.4440887024929996e+00
89 8.5411612235860002e-01 -4.8901083522800004e+00 6.8306911421840004e+00
90 1.7926025319029999e+00 9.9679654667109996e-01 2.4618472445689998e+00
91 -2.3750441980689998e+00 -9.5505895298729993e+00 5.5538979511819999e+00
92 8.1583054429290005e+00 2.0200271641079999e+00 -4.0566122375670002e+00
93 -5.6295920174100003e+00 -3.0690928991219999e+00 2.1394111400360000e-01
94 3.6422723846160001e+00 -9.0740258564099996e-01 6.0279609744300000e-01
95 1.4907189034060000e+00 3.6155204696480001e+00 -7.3635988123729996e+00
96 1.8680598990470001e+00 -7.5042340509189998e-01 -4.0563999464179998e+00
97 1.9465675439800001e+00 -3.2942951089750001e+00 1.5993150358370001e+00
98 -4.1524462706190004e+00 5.6086183212360003e+00 -5.5989376596209999e+00
99 7.0750319861480004e-01 1.1523261977399999e+00 -1.3844396401220000e+00
100 -3.5262138140250001e+00 -3.0331672057560000e+00 5.2497951410809998e-02
101 2.1347448184709998e+00 -2.1167836811130001e+00 4.7289998183820003e+00
102 -2.2944462852559999e+00 2.0574820824260001e+00 -1.5848564016110001e+00
103 2.1840157558220001e+00 -1.0924899558309999e+00 -1.2648942650910000e+00
104 1.3632177812720001e+00 -6.7323331079919999e+00 6.8336672049090001e+00
105 5.3081671139719999e+00 5.8993272942099999e+00 -4.3194080059130000e+00
106 3.7984603593610000e+00 3.7636494737969999e+00 -2.9533623846529999e+00
107 5.6648325068479997e+00 1.6043057948499999e+00 -1.6774193888940001e+00
108 -7.2005341611500002e+00 1.4770374505430000e+00 -2.8203828947720000e+00
109 4.3862680581189997e+00 -5.7792417330000001e+00 9.0299452622139997e-01
110 9.9818731154810003e-01 6.2478729564400002e+00 2.9267818070259999e+00
111 2.2634023781720001e+00 8.0518228735510000e-01 -6.1980562903459999e+00
112 1.1084453997979999e+00 1.5111558177930000e+00 -4.8972901005570000e+00
113 -3.8298022749660001e+00 -6.9919993619219998e+00 6.6164584049440001e-01
114 -9.6853418295490001e-01 -4.5654444825649998e+00 1.2974732295639999e+00
115 1.3845337649310001e+00 -6.2423074446299998e-01 5.0981873606990002e-01
116 -1.5401292086620000e+00 -6.3278369715389999e+00 5.6006575738729998e+00
117 -5.6711580224360003e-01 2.5103677309169998e+00 2.2629480388549998e+00
118 -2.9710055339699998e-01 -2.6622499335190000e+00 -5.4973040560199999e+00
119 8.4291445101789997e-01 -1.3374817576350000e+00 -2.5946928354379999e+00
120 -1.9457460903549999e+00 -8.8352587605160005e-01 -1.3258989318009999e+00
121 -1.2173085557740000e+00 -1.6450380067070001e+00 -8.6936828728680005e-01
122 3.8358192089549997e-01 -6.0893426593399997e+00 3.9466464020320000e+00
123 -4.4863609836320002e+00 -1.8875721611450000e+00 -2.6773191024290002e+00
124 -2.3507623094360000e+00 -2.4137399348450002e+00 4.6777309850529996e+00
125 -3.9436440883300000e-01 -7.3829571315819997e+00 -8.7429023545850004e-01
126 -2.3687411707849999e+00 -2.5352122385899998e+00 -4.2120365520650003e+00
127 -4.5382042903349999e+00 -2.5725482764390000e+00 4.0904842997120001e+00
128 -5.3768961590659998e+00 6.6764876977009999e+00 1.0313210681839999e+00
129 4.1702791604430001e-01 -9.9421879718890001e+00 -2.9033014549120000e+00
130 2.8382379425580000e+00 -2.7338751566749999e+00 4.5772830782330001e+00
131 -6.9973847224709995e-01 -1.0934801445290001e+01 -3.0725434603330002e+00
132 2.6546025021230002e+00 3.6902082122830002e+00 5.0502506504679996e+00
133 4.3970317289630003e+00 1.0286501395779999e+00 1.4567838660940000e+00
134 2.6186228927180002e+00 -1.1431660202609999e+00 1.3842941147470000e+00
135 4.6339354523220004e+00 1.6585525681750000e+00 -3.5206258691680001e+00
136 5.5826196301520001e+00 5.5328113037510001e+00 2.8828968099040000e+00
137 -3.2591570414960001e+00 3.3007346076210000e+00 -5.0427787233450001e+00
138 3.8657996905530001e+00 -8.8009548285959998e+00 6.5008470910759997e-01
139 5.2225768126799998e+00 2.2611163590440002e+00 -7.8594230858740000e+00
140 2.3596811289959998e+00 1.9509714421969999e+00 2.5804653540959999e+00
141 4.1272236982060004e+00 3.7242016916980001e+00 3.5465583949430002e+00
142 2.8685523352370002e+00 3.7847961617269998e+00 -5.3604979418419996e+00
143 4.5131129964799999e-01 1.6681168554340000e+00 4.0364493583890004e+00
144 -4.0195890681669999e+00 -4.3229994372330000e-01 -3.7818708049940000e+00
145 2.6465398260359998e+00 -2.7390214544350000e+00 2.7546855577620000e+00
146 -2.6401412392230000e-01 1.6519031279540000e+00 -2.3650674028359999e+00
147 -1.0311087917590001e+00 1.0839560868760001e+00 4.7294390322480000e+00
148 9.6751344150240004e-01 -5.0169883214200004e+00 2.6358065904979999e+00
149 -4.0611313683120001e+00 2.9810471285050002e+00 1.2900810125500000e+00
150 6.0726522427660001e-01 3.8178663161130002e+00 -6.9319351046230002e+00
151 -3.8105733727339999e+00 7.6729024858219996e-01 2.1636812791599999e-01
152 -4.7947052359100004e+00 4.7224995312300004e+00 4.5252908923030004e+00
153 -3.0368838429689999e+00 -4.5464317056379997e+00 -4.4305824341049999e-01
154 -1.0115964287610000e+00 1.5676047112380000e+00 -4.6098194896170002e+00
155 -3.3285441092110002e+00 1.1730596310870000e+01 1.1246631821299999e+00
156 5.2086487213849999e+00 -1.5141324380410000e+00 1.0599109332979999e+00
157 2.4665133473099998e+00 5.6982953635119999e+00 -2.4274308334729999e-01
158 -1.9547218978830001e+00 5.7550506365310001e+00 2.6566095910060000e-01
159 -3.0390003977309998e+00 -3.7482594352919998e+00 3.3393995603150000e+00
160 -3.6076378056560001e+00 -7.1582858750709999e-01 1.4694874937130000e+00
161 -4.0860625685520002e+00 9.6842254314870004e+00 -6.1551648085040001e-01
162 4.2264957728840002e+00 -1.7390000607770000e+00 7.1340256021629997e+00
163 2.2071909336800002e+00 -5.4889166917340004e+00 -5.7927187791670001e+00
164 -2.7222767222000002e+00 2.3197305967230000e-01 6.3902224480459999e+00
165 -3.5058586122370001e+00 -1.3340214398470001e+00 -6.0864924038839996e-01
166 6.3986356803369997e+00 3.8944374789910001e+00 1.5172810728909999e-01
167 -1.3070019257809999e+00 1.7799201290830000e+00 -5.2689201463510003e+00
168 2.3842302935810000e+00 7.7229839652240004e+00 9.3534317574150005e-01
169 2.7333773735130001e-01 2.5159098655199998e+00 2.1390438324950001e+00
170 7.5930957075799999e-01 6.5503444995229998e-01 -5.4982055690790004e+00
171 -7.5149629255679997e+00 1.3948759160330000e+00 -8.6757215770239995e+00
172 -1.8198958260270001e-01 6.6845533160489996e+00 -2.1580612698190000e+00
173 -3.1731247164190002e-01 2.9435580045190002e+00 -1.3052375308190001e+00
174 2.9253211673460000e+00 1.6496536283959999e+00 1.1203746508869999e-01
175 4.4473767493590000e+00 -1.6006615952959999e+00 4.7600727341280002e+00
176 3.5300794174319998e+00 -2.2385840211889998e+00 -3.9847472621729998e+00
177 2.2342882579759999e+00 -1.8427333710110001e+00 -2.3116028335370000e+00
178 -1.8867995747930000e+00 -3.9510441183320002e+00 2.6835069887070002e+00
179 1.9418117596619999e+00 6.6195972387059996e+00 -3.1647223149040000e+00
180 2.0347377267429998e+00 -6.3327571446789999e-01 -1.1258133288800001e+00
181 -4.6469886533680000e+00 -3.1240880589210001e+00 -6.8920773417970000e+00
182 3.0410775793229998e+00 -1.9246234711440000e-01 -3.5250311420539999e+00
183 -3.0407015578909999e+00 7.8843280096080004e-01 4.8104330742889996e+00
184 -1.2868331266049999e+00 -3.7447023702840001e+00 5.5223276203570002e+00
185 1.5010592055609999e+00 -1.8028044265909999e+00 1.6202032900909999e+00
186 -3.2607226196190000e+00 -4.0178397870320000e+00 -6.5251328706980001e+00
187 -3.0053976997540000e+00 -6.2652032142960001e-01 -4.2109079057069998e+00
188 -3.6612839856510000e+00 -2.5872451095339999e+00 -4.8176280689709999e-01
189 3.0687273282169998e+00 2.7489557420759998e+00 -7.3202868287019995e-01
190 -1.8470937386810000e+00 1.4764084329760001e+00 -4.0421472250069996e+00
191 -4.9144951047670000e+00 7.3276354513499997e-01 1.9446888362590000e+00
192 -7.7574967009140003e+00 5.3321707024849996e+00 6.4773860022219996e+00
