LAMMPS data file extracted from NVT dump, timestep 1840000, units metal

192 atoms
2 atom types

0.0000000000000000e+00 1.6195563468200000e+01 xlo xhi
0.0000000000000000e+00 1.6195563468200000e+01 ylo yhi
0.0000000000000000e+00 1.6195563468200000e+01 zlo zhi

Masses

1 12.00000000
2 16.00000000

Atoms # atomic

1 1 5.2741440791910001e+00 4.5178113769420003e+00 1.4788128097890000e+01
2 1 1.4637354568079999e+01 1.0787401169960001e+01 1.1318762834550000e+01
3 1 9.8480656849270005e+00 1.2564135983420000e+01 1.0651236445120000e+01
4 1 1.6101264914200001e+01 7.1007011776809996e+00 7.3954265102440004e+00
5 1 1.3695387823470000e+01 8.2482576375539995e+00 1.4641244184080000e+01
6 1 1.2871583563000000e+01 1.2775093795820000e+01 3.7044910609369999e+00
7 1 8.5802052088679996e+00 6.8570916650429998e+00 1.3243403469620000e+01
8 1 4.2764199817039996e+00 1.3808729931729999e+01 4.0104820605690001e+00
9 1 1.2150102021900000e+01 2.7622963142980002e+00 4.2500166413920004e+00
10 1 4.3065510119619999e-01 4.7728155568919997e+00 1.3161375138169999e+01
11 1 1.4975316620539999e+01 6.1999452617359996e-01 1.5909202472020000e+01
12 1 1.2834305600660001e+00 6.4032342540249996e+00 3.7063222524940000e+00
13 1 2.8441451824570002e-01 1.5729296177869999e+01 6.1062041899119999e+00
14 1 2.7754381932130001e+00 1.3126192755570001e+01 8.2003368374680008e+00
15 1 1.0439016747320000e+01 8.9488157370929997e+00 1.5931655143810000e+00
16 1 5.1878617285219999e+00 5.1482516034439998e+00 1.0076405045610000e+01
17 1 7.3725939869920003e+00 1.2987770601879999e+01 5.4554591118389997e+00
18 1 3.7549050430899999e+00 1.3621359451020001e+00 7.4179264613300004e+00
19 1 6.2946847237460002e+00 1.1155000925240000e+01 1.0643315690660000e+00
20 1 2.0680540633720002e+00 1.1288908716430001e+01 3.4269212963290001e+00
21 1 1.0933625970620000e+01 2.1778641057930002e+00 8.3009584185089995e+00
22 1 7.8939121235060004e+00 1.1600891419650001e+01 8.3963126519319999e+00
23 1 1.5982904888520000e+01 2.7551014954530002e+00 4.2759143947300000e+00
24 1 1.3932456698699999e+01 8.5826292914549995e+00 2.7110877790960002e+00
25 1 1.1800994414920000e+01 5.5773351693900004e+00 7.5552183415830001e+00
26 1 7.0678254085229997e-01 1.4452344444960000e+01 2.1736188470050002e+00
27 1 4.3073375500950001e-01 2.1896390312950001e-01 1.0894325875310001e+01
28 1 2.5974963165650000e+00 8.5739049445370004e+00 1.2309461287070000e+01
29 1 1.0408907838579999e+01 4.3622880258899999e+00 1.2707252616370001e+01
30 1 1.8081001818669999e+00 3.2972639116089999e+00 4.0084128647459999e-01
31 1 6.6895959323829999e+00 1.5956241786370001e+01 9.9545168714910002e+00
32 1 3.1648210098959999e+00 1.5729282897950000e+01 1.5347754610799999e+01
33 1 9.1282792653409999e+00 6.6898245677940000e+00 9.6393478035030000e+00
34 1 3.5880259090740001e+00 1.4873303656979999e+00 3.5964126075910001e+00
35 1 1.4705669252740000e+01 1.1577677821580000e+01 6.0695191694329997e-01
36 1 1.3550341614350000e+01 1.3992819494450000e+01 1.3327913525820000e+01
37 1 1.1188876942180000e+01 9.5048102422569993e+00 1.1791578932269999e+01
38 1 1.1549056665320000e+01 1.5435979068079999e+00 1.5904480383359999e+01
39 1 8.9881291012949998e+00 1.5103321171459999e+01 1.3994506685110000e+01
40 1 6.5745499471750000e+00 9.7904258273669997e-02 9.9985842439189998e-01
41 1 4.5060961408329998e+00 9.2597614277120002e+00 8.7524503946959999e+00
42 1 7.6517534808810002e+00 4.8471015957969998e-01 5.0282327934659996e+00
43 1 1.4175503902730000e+01 1.3369454931520000e+01 9.2508845589180009e+00
44 1 4.6701033943799999e+00 1.2459061833680000e+01 1.1524546916160000e+01
45 1 5.4913011384699999e+00 6.3520503161919999e+00 1.3787937179140000e+00
46 1 1.1953277444619999e+01 4.4398883769439998e-02 1.0888790666409999e+01
47 1 1.5666369119660001e+01 1.1160244883790000e+01 6.8265813093589998e+00
48 1 1.3566517360250000e+01 5.5677260920069997e+00 1.0016286429000001e+00
49 1 1.0479941524290000e+01 1.1345225625059999e+01 1.5009714934700000e+01
50 1 8.4767428893420007e+00 8.0167682166490000e+00 6.1956558779559998e+00
51 1 3.7123222822959998e+00 2.7684985658860000e+00 1.1262147910490000e+01
52 1 8.0445550253459999e+00 2.6982825131079999e+00 1.4422244494239999e+01
53 1 6.8949038334569996e+00 1.0227284691700000e+01 1.3876434954030000e+01
54 1 5.5334592307900001e+00 9.3412952436760008e+00 4.5251069347720003e+00
55 1 6.1875267156079996e+00 4.1604100764669996e+00 3.9061869773279998e+00
56 1 9.3602644225549998e+00 4.8990316086150001e+00 2.3491701448520002e+00
57 1 7.4219930250199995e-01 1.2416614423670000e+01 1.3313253870860001e+01
58 1 3.8810132698950000e+00 6.1750959141140003e+00 6.1220211975619998e+00
59 1 1.1727632906620000e+01 1.5330222345379999e+01 2.1062963888869999e+00
60 1 1.3774625362880000e+01 6.7443253622129999e+00 1.1732781462109999e+01
61 1 1.1474269827170001e+00 4.1455934774959999e+00 9.0809259605979999e+00
62 1 1.2087286650699999e+01 9.8831452596190008e+00 6.8929967738929996e+00
63 1 3.1009722802219999e+00 9.1760832436970006e+00 2.4183028353040001e-01
64 1 1.2875728491109999e+01 1.5488245344279999e+01 6.6661025039880002e+00
65 2 5.3113802077449996e+00 5.4334116218800004e+00 1.4026363067989999e+01
66 2 5.2351290024240003e+00 3.5920427592860000e+00 1.5509379561270000e+01
67 2 1.5058462560530000e+01 1.0340300422549999e+01 1.0299165038969999e+01
68 2 1.4371181105220000e+01 1.1255624045879999e+01 1.2351368115910001e+01
69 2 9.1944724145359995e+00 1.1785636951220001e+01 1.1242455969960000e+01
70 2 1.0518843815340000e+01 1.3316558846600000e+01 1.0013507173010000e+01
71 2 1.5468644696749999e+01 6.9070815459850001e+00 6.4373097844600000e+00
72 2 5.9018533977120002e-01 7.2682534515589996e+00 8.2883193574020009e+00
73 2 1.3464624669750000e+01 7.0937668541440004e+00 1.4640475931070000e+01
74 2 1.3900716378100000e+01 9.3905893942740004e+00 1.4604314589319999e+01
75 2 1.3699229361240000e+01 1.3529973839549999e+01 3.3804095159390002e+00
76 2 1.2079604218680000e+01 1.2065599755010000e+01 4.2153523379560003e+00
77 2 9.2050902979569997e+00 6.5118579300689996e+00 1.4182095104780000e+01
78 2 7.9250320132349996e+00 7.3607254334920000e+00 1.2420736531679999e+01
79 2 3.5091656008199998e+00 1.3722207625839999e+01 4.9283417105370004e+00
80 2 5.0547203525880002e+00 1.3896679778270000e+01 3.1243208129030000e+00
81 2 1.1631043515920000e+01 3.4318076777740001e+00 3.3762090392820001e+00
82 2 1.2647827775920000e+01 2.1338183136679998e+00 5.0744294958139999e+00
83 2 7.1177247447490000e-01 5.9024147512549998e+00 1.3473081773520001e+01
84 2 2.5487786323610001e-01 3.6596777756160002e+00 1.2886413728290000e+01
85 2 1.4172501097470001e+01 1.1598804545890000e+00 1.5241372530510001e+01
86 2 1.5779176195510001e+01 4.4531232542139997e-02 3.7856220945050001e-01
87 2 1.7243385816079999e+00 5.3962949832460003e+00 3.2510763433390002e+00
88 2 8.5617653092989998e-01 7.4528292674839998e+00 4.0144837242830000e+00
89 2 1.2922986750779999e+00 8.2645082102249995e-02 6.2460745490929996e+00
90 2 1.5432298309420000e+01 1.5249024123920000e+01 5.9006428956550003e+00
91 2 3.7988470695999998e+00 1.2476738373360000e+01 8.1874207055649997e+00
92 2 1.8062339915109999e+00 1.3787110546770000e+01 8.3088628656210002e+00
93 2 1.1110763397490000e+01 9.4167635057109997e+00 2.4068264205870000e+00
94 2 9.7596705231800005e+00 8.5824680137579996e+00 7.0118899701299997e-01
95 2 5.6386854434130003e+00 4.3431339929470001e+00 9.3724773896270008e+00
96 2 4.7562849906610003e+00 5.9808982514990001e+00 1.0763516889190001e+01
97 2 6.5031404178279999e+00 1.2724079176189999e+01 6.2161003154770000e+00
98 2 8.2730771116069999e+00 1.3228765683010000e+01 4.7436231339310000e+00
99 2 4.0930154006480004e+00 3.1630652455280001e-01 7.7926295261820000e+00
100 2 3.3510763937360002e+00 2.4312996410030001e+00 7.1277384180289998e+00
101 2 6.0405328740869999e+00 1.2101680671100000e+01 4.1118306042090003e-01
102 2 6.5967659889770003e+00 1.0274947849349999e+01 1.7748380668410000e+00
103 2 2.5836365803680001e+00 1.1673734961810000e+01 2.4302709066519999e+00
104 2 1.6939286045740001e+00 1.0872428245380000e+01 4.4414307286539998e+00
105 2 1.0955233788559999e+01 1.3886281296559999e+00 7.4109060132459996e+00
106 2 1.0937083143140001e+01 2.9641913374320001e+00 9.1525795811599995e+00
107 2 8.9492682098569993e+00 1.1845490311130000e+01 7.9402226605910000e+00
108 2 6.8167193834980004e+00 1.1463025663560000e+01 8.8530726204679997e+00
109 2 1.5643280870500000e+01 1.7888519539359999e+00 3.7037096461079999e+00
110 2 1.3123886486280001e-01 3.7165386915880001e+00 4.8499093645610003e+00
111 2 1.3913801579979999e+01 8.3742797071480002e+00 3.8793698020009999e+00
112 2 1.4006289266590001e+01 8.7427598886349998e+00 1.5700268839800000e+00
113 2 1.1237191498930001e+01 4.8766636955639999e+00 6.7834803705760001e+00
114 2 1.2461678102880001e+01 6.1969876534769996e+00 8.3268315385640008e+00
115 2 1.6168954182739999e+01 1.3524112476950000e+01 2.0685095123530002e+00
116 2 1.3685450365950000e+00 1.5368977698120000e+01 2.4846713813560002e+00
117 2 5.0411063046219995e-01 6.3653070706970005e-01 9.8360276053700009e+00
118 2 3.5690825594269998e-01 1.6043182598580000e+01 1.1991776675540001e+01
119 2 1.7761173975269999e+00 8.0028734639899994e+00 1.1627548931790001e+01
120 2 3.4110699024929998e+00 9.1056604386589992e+00 1.2926816786030001e+01
121 2 1.1006506063210001e+01 3.7323517814120000e+00 1.3496616197880000e+01
122 2 9.6754226541180000e+00 4.8387337705359998e+00 1.1930958927280001e+01
123 2 2.4758797530060002e+00 3.9200850713039999e+00 1.5836405863840000e+01
124 2 1.1693201743840000e+00 2.5996226941609999e+00 1.1109782837500000e+00
125 2 5.8589368898789997e+00 7.1640028268580000e-02 1.0712497235600001e+01
126 2 7.5533383836360004e+00 1.5828237696150000e+01 9.1730228340069999e+00
127 2 2.6519432880050000e+00 1.5232527665410000e+01 1.4417878537849999e+01
128 2 3.5372448583340002e+00 1.6186165483029999e+01 1.5121583742870001e-01
129 2 1.0005182424419999e+01 7.3952395663260004e+00 9.9742436954000002e+00
130 2 8.1860078175430004e+00 6.0820507984190000e+00 9.2706905667940003e+00
131 2 3.2439326138959999e+00 2.5623328350130001e+00 3.1769942473569999e+00
132 2 3.9484298135720000e+00 5.2434709675010005e-01 4.1959011292110002e+00
133 2 1.3711382799080001e+01 1.2180444734969999e+01 2.8695291569870002e-01
134 2 1.5589420333230001e+01 1.0858042505829999e+01 8.4902128874780003e-01
135 2 1.2430256940940000e+01 1.3848096385170001e+01 1.3075575789880000e+01
136 2 1.4701599357310000e+01 1.4006614952380000e+01 1.3484873825079999e+01
137 2 1.0810527804319999e+01 8.7768968891779995e+00 1.2643383251840000e+01
138 2 1.1536643640839999e+01 1.0221923143880000e+01 1.0939136679560001e+01
139 2 1.1162346262340000e+01 5.1223090492120005e-01 1.5524557736809999e+01
140 2 1.1867829393070000e+01 2.6264396338510001e+00 2.7145784935439999e-02
141 2 9.8163717775170003e+00 1.4463557851270000e+01 1.4533310271920000e+01
142 2 8.1250335754989997e+00 1.5685528376400001e+01 1.3427930410009999e+01
143 2 6.4880908590260002e+00 1.5548908557040001e+01 1.1472398960640000e-01
144 2 6.8333347221079999e+00 8.4246592178549995e-01 1.8812242033510000e+00
145 2 3.9173191135969998e+00 9.9443474680980000e+00 9.5181469496929996e+00
146 2 5.0425495511919998e+00 8.5608050083829994e+00 7.9671513519559998e+00
147 2 6.6829680679259997e+00 1.6105564778830001e+01 5.3432003246619999e+00
148 2 8.6803844705909992e+00 9.0930150399609999e-01 4.5916267134449997e+00
149 2 1.3188215543560000e+01 1.2855753347129999e+01 8.8612020482900000e+00
150 2 1.5217185783790001e+01 1.3745241168680000e+01 9.6312858018550003e+00
151 2 3.6271716225500001e+00 1.2123641710170000e+01 1.1901130312619999e+01
152 2 5.7867724521439996e+00 1.2688655564059999e+01 1.1189116175710000e+01
153 2 4.3625137487580004e+00 6.1835740473260001e+00 1.7648359182910001e+00
154 2 6.5720974317970002e+00 6.5674474236389999e+00 9.8262660740969998e-01
155 2 1.0850998412979999e+01 4.0658999931849998e-01 1.1076779040560000e+01
156 2 1.3127507423999999e+01 1.5942595787480000e+01 1.0828509037100000e+01
157 2 1.5544530417020001e+01 1.2326515451510000e+01 6.9416129181480004e+00
158 2 1.5864491532640001e+01 1.0008166935840000e+01 6.6100893326539998e+00
159 2 1.2671287513619999e+01 6.1600252412940000e+00 1.5046883028430000e+00
160 2 1.4385169517020000e+01 4.8718498303280002e+00 5.2083384984199999e-01
161 2 1.1223071896160000e+01 1.1411885803490000e+01 1.4087946745249999e+01
162 2 9.7177201975309995e+00 1.1193211651380000e+01 1.5865565146110001e+01
163 2 9.1215735438860008e+00 7.1347444652689997e+00 5.7687960148300004e+00
164 2 7.8700806490630004e+00 8.9232623125499995e+00 6.6591810512440004e+00
165 2 4.4693005475729999e+00 3.2649217109560000e+00 1.2027256577470000e+01
166 2 2.9816485964289998e+00 2.1629547747900002e+00 1.0587499503520000e+01
167 2 7.6356021880030003e+00 3.5904552186259999e+00 1.3771622069810000e+01
168 2 8.3976834506069995e+00 1.8356106144550000e+00 1.5104981364430000e+01
169 2 6.5672659319299997e+00 1.0229745290489999e+01 1.2736059509480000e+01
170 2 7.2365811180430004e+00 1.0040982129710001e+01 1.5001896954439999e+01
171 2 5.8509215233090002e+00 8.2438186564850007e+00 4.1882582647650004e+00
172 2 5.3801994874880004e+00 1.0464683287860000e+01 4.9094288607329997e+00
173 2 6.4407534507220001e+00 5.2585959419549999e+00 3.6042505068600001e+00
174 2 5.8517884255150001e+00 3.1363264038110001e+00 4.3770452140660003e+00
175 2 9.7214368827099999e+00 5.6550134663940002e+00 3.1789983651800000e+00
176 2 8.8202579254260005e+00 4.1727051890810003e+00 1.5696871975750000e+00
177 2 5.9231053807940004e-01 1.2019407064439999e+01 1.4384846320430000e+01
178 2 9.1937246654009996e-01 1.2607802315670000e+01 1.2142663319430000e+01
179 2 4.9804384369949997e+00 5.8274519775450004e+00 5.9828189422899998e+00
180 2 2.7959942882309998e+00 6.4609767868120001e+00 6.4169297150029996e+00
181 2 1.2252109956460000e+01 1.2711421031410000e-01 2.4480666469190000e+00
182 2 1.1189138823730000e+01 1.4321440450210000e+01 1.8833021341770000e+00
183 2 1.2819169585730000e+01 6.0293195333560003e+00 1.1645143820210000e+01
184 2 1.4663987253269999e+01 7.5291451105879998e+00 1.1832576558890000e+01
185 2 6.0873468654439999e-01 3.7210866440529999e+00 8.1616606189059997e+00
186 2 1.6993330073870001e+00 4.6689072630039998e+00 9.9717890510850005e+00
187 2 1.1239438211250000e+01 9.5282333647699993e+00 6.1929267805229999e+00
188 2 1.2985977387380000e+01 1.0133919288410000e+01 7.6076682015879999e+00
189 2 2.1728807771769998e+00 8.4938305365229994e+00 3.3565569900120001e-01
190 2 3.9586080148520000e+00 9.9316819562400003e+00 1.6195433792119999e+01
191 2 1.2584356181120000e+01 1.5156782640539999e+01 5.5583435289240004e+00
192 2 1.3034689837489999e+01 1.5917964983799999e+01 7.7549357596309996e+00

Velocities

1 6.9086431721660002e+00 3.0031406680260000e+00 3.3498086008710000e+00
2 -4.2017211468060003e+00 5.6173740707529998e+00 -2.8683557035270000e+00
3 -1.2261315438510001e+00 -1.0387640454580001e+00 -1.7719028492569999e+00
4 -5.7396878486920002e+00 5.8209490358210001e+00 3.6850105990120001e+00
5 -1.0567520941240001e+00 -3.2822231951770000e+00 3.2319771766040000e+00
6 1.2868697523969999e-02 5.6456857194729997e+00 -5.2597784080379997e+00
7 7.8812138925699999e+00 1.4830459750389999e+00 -4.3465654424980000e+00
8 -2.4357051311640001e+00 4.5266269089530002e+00 -8.1853297022320000e+00
9 -5.0222351774940002e+00 7.0051491400849999e+00 -1.0760874678250000e+01
10 -4.3697058401250004e+00 -3.3624304123459998e+00 1.9861382830940000e-01
11 1.6992079505719999e+00 -1.1385699014710000e-02 -2.4971196599510002e+00
12 -4.9434178524170003e-01 -4.9209859255239996e+00 -8.7596609398100007e+00
13 -2.8821624458750001e+00 4.5054629612430004e+00 1.0221159914939999e+01
14 -4.1035759755249996e+00 -1.4873839535780000e+00 4.8792692329170002e+00
15 -3.7164897341779999e+00 2.9378717224069999e+00 -4.9950495971660001e+00
16 8.7368193431459993e+00 1.3441088313130001e+00 -3.7504673616030000e+00
17 -1.6426020192030000e+00 2.3654223192760000e+00 -1.3194611524069999e+00
18 1.5638043536470001e-02 -5.6080672194309997e+00 -2.0245577828719998e+00
19 -5.5360721841070004e-01 2.8041838961040000e+00 -9.2277751199519997e+00
20 -6.7403308495769998e-01 -9.6283071540529992e+00 -6.2915412482189996e+00
21 1.8021295771720001e+00 5.4586688861850003e+00 1.2963996880920001e-01
22 1.1551122476100000e+01 2.8061567076329998e+00 -2.1196509374060000e+00
23 6.5375876954510004e-01 -1.4860426217869999e-01 2.3405787985569999e+00
24 3.0921306136890001e+00 1.1475405102250001e+01 1.1906716520000000e+00
25 -4.0884509129020002e-02 7.4062056676079999e+00 3.9036744398160002e+00
26 -1.8976445193660001e+00 -4.1762817131330001e+00 5.4010335395849998e+00
27 -8.7525497622220005e-01 2.5782085191180002e+00 1.6656794844409999e+00
28 2.1177035593730000e+00 -3.5567304444149999e+00 3.8034337522320000e-01
29 -2.4814802526860000e+00 5.3403935373089995e-01 -2.7329147392620001e+00
30 -1.4147456496610000e+00 -5.4193219353949997e+00 -6.7440922443500000e+00
31 2.9315366757039998e+00 -8.7053162639509996e+00 -5.5212437672729999e+00
32 -2.4343015147210001e+00 1.5077455724890001e+00 -1.2235956713160000e+01
33 -8.3753889465170008e+00 -4.1747340363839998e+00 3.7981398947199998e+00
34 -2.6621800893360001e+00 -7.0727488839069999e+00 2.6064471033470000e+00
35 -4.1432934115700002e+00 4.2978952669970001e+00 -1.7292568488919999e+00
36 -3.8700333893060002e-01 -8.6352742918549996e-01 1.7766879183019999e+00
37 4.5370585790269997e+00 5.4599010924670000e-01 7.0296733592270000e+00
38 1.6341342074430001e+00 -3.4533851511679998e+00 -8.4020525913450008e+00
39 6.9700059693500005e-01 6.3866637851020003e-01 1.4065756274550001e+01
40 1.0381322174770000e+00 -2.6893299593369999e+00 -5.7524385442700003e+00
41 8.2785237625150003e+00 7.5116045137579999e+00 1.0292317986280000e+00
42 -1.5166045891900000e+00 4.5154433841049997e+00 5.7115227255149996e+00
43 -2.7504464109729998e+00 9.7591753675589992e+00 -1.6111777214030001e+00
44 4.3642697904730001e+00 4.3523941781379999e-01 7.0199974649310004e+00
45 -2.7198148202939998e+00 -1.8324974106830001e+00 -4.1656727389640000e+00
46 -3.7637676315349999e+00 -4.3939480164439999e+00 -3.9348179403049999e+00
47 2.4723239073740002e+00 3.1190445550520002e-01 -2.8709529909570000e+00
48 4.8935516983159999e-01 6.3011790916540003e+00 7.1942623628710001e+00
49 -8.0741407650910002e-01 8.9271498266680005e-01 -1.9528864273200000e+00
50 -7.9703092623850003e-01 -9.1191988098079992e+00 4.5553843816250000e-01
51 -2.2233213961899998e+00 -2.8116768804209999e+00 -7.8117321063859997e+00
52 -6.5417599997610001e+00 -6.6087424615119996e+00 -3.7941062479690002e+00
53 3.1782989990749999e+00 -1.3456489811679999e+00 2.4236524624650002e+00
54 5.8091631749539996e+00 -8.8087502421190003e+00 -2.1016864895370002e+00
55 5.0204871616019997e-01 -3.4657841105580001e-01 -4.0391636471560002e+00
56 -4.1049715850149999e+00 1.1701662953709999e+00 -4.7082623310300002e+00
57 -7.3144966075440001e+00 8.2973685453900003e+00 -2.9043153870239999e+00
58 1.6248153423400000e+00 -2.1735993939779998e+00 -2.0091891358860001e-01
59 3.3495544582829999e+00 -2.5130483906349999e+00 -5.0320941114649997e-01
60 -9.9836632645079995e+00 6.7146187911039998e+00 2.7456164439930002e+00
61 1.3362402832410001e+00 3.2578630272670002e+00 7.3031660932740001e+00
62 5.4752600053420002e+00 5.9016656612649998e-01 -8.4130529365490003e-01
63 -8.3395884705300005e-01 -1.8464754785619999e+00 -1.2045143727500001e+00
64 -1.0549257321490000e+00 -6.7385257196180000e+00 -4.4654283801040001e-01
65 -3.5801511974369999e+00 -5.9816860560269998e+00 -4.0752954920970001e+00
66 1.9203736704050001e+00 -4.2795635620040002e+00 -4.7547024118400000e-01
67 4.5703070246279998e+00 1.0046901786579999e-01 -3.2147450183799999e+00
68 -4.7283604281339997e+00 -5.7456827888250004e+00 2.2737825790409998e+00
69 5.1931910791150004e-01 2.1250504608880001e+00 6.0964570561170000e+00
70 -3.6274259367289998e+00 4.4709917962089998e+00 -5.8082019150819999e+00
71 2.1728521688560001e+00 -2.6503247481829999e+00 -1.7877701301179999e-01
72 1.0368670434480000e+01 1.3982656783039999e+00 2.2440634340679999e+00
73 1.7890676570520000e-02 4.8974348104990001e-01 -8.0325931775790005e-02
74 4.1204518006240001e+00 -1.1843229247689999e+00 -2.8041045851030000e+00
75 9.5843777001660002e-01 2.0276280141549998e+00 1.3919998904790001e+00
76 -4.5015454425339998e+00 1.3373518249200000e+00 5.7044670815340002e+00
77 2.9092526409390000e+00 -8.5011585003089998e+00 1.7078574910870001e-01
78 -6.5590718620540001e-02 1.5417668703600000e+00 5.0256139970189997e+00
79 -3.9696285471610002e+00 9.5968424003899999e-01 -5.0999867689750000e-01
80 3.4644263147309999e+00 4.4875473627030003e+00 -4.8005888409770003e+00
81 -1.4814255382420001e+00 4.9677162324389998e+00 -2.0771665924709999e+00
82 2.4116000252809999e-01 -6.8080510079949996e-01 -7.0611376198239995e-01
83 -2.9036609481659998e+00 -3.4981809947990001e+00 5.4518258845209999e+00
84 -4.1924242684660001e-01 1.8899490072470000e+00 5.8018169353960003e+00
85 -8.4108715252340005e-01 -2.1662443645549998e+00 4.3371786609239997e+00
86 2.1588926777869999e-01 3.0714933567220002e+00 -1.7578225013480000e+00
87 -7.6794246781900002e+00 -2.1111809303130000e+00 -7.4036905713729995e-01
88 5.6198197696429997e+00 -5.2347518372409996e-01 -1.4032803805359999e+00
89 2.5654118829489998e+00 2.8515976458190000e+00 -5.6216605911649999e+00
90 9.0274391247139996e-01 2.7357171172279999e+00 -3.6996207884059999e+00
91 2.7683198368430002e+00 -7.8953560877939999e-01 -1.6814421335670000e+00
92 -9.2193962206659996e-01 -7.7548044964979995e-02 2.9718780353300001e-01
93 -8.2025576000589995e-01 -7.4444912850389997e+00 8.3530039564250007e+00
94 -4.9033240278710002e+00 -5.8554890324900004e+00 1.0464855005320001e-01
95 -3.0390318533279999e+00 -1.1225124176910000e+00 1.1536296536490001e+00
96 -1.1198254489410000e+00 -4.0595918141380000e-01 1.1305654342940000e+01
97 3.6284836140920002e-01 -3.7296391786040002e+00 5.1410533979070001e+00
98 -6.1775464944180003e+00 1.1426942579449999e+01 -4.1605971396439996e+00
99 1.7124471916280000e+00 3.0180102374239999e+00 5.4387522625080003e+00
100 -5.9395212900359997e+00 4.7715860369340002e-01 -2.8669232292600000e-01
101 2.1246254584680000e+00 2.6274467251150000e+00 -2.5403600449970001e+00
102 4.1088841430569998e+00 -2.4406008355340001e+00 5.0763431904400003e+00
103 3.5261289659789998e+00 1.4367873799060000e+00 -5.9788440347299998e-01
104 -6.4815516786530001e+00 -6.6862324762309999e+00 1.6707925418200000e+00
105 -2.1467808996550000e+00 1.2227441079779999e+00 -3.6571714726039999e+00
106 -7.5905015104839997e+00 -3.8595616554670000e+00 -4.2760780813870003e+00
107 3.8176425212660001e-02 -5.9724463254120002e+00 1.6599593043609999e+00
108 5.8362757071600004e+00 -1.8054090512690000e+00 -6.3577455015000002e+00
109 -4.9066386252139997e+00 3.5515993573019999e+00 -2.8832877003480002e+00
110 5.8735880095110005e-01 -2.4870681896920002e+00 -9.1579581166260005e-01
111 4.9792474249550001e+00 2.5847505795769998e+00 2.8700723482310000e+00
112 -1.1635185944810000e+00 -1.4842949471980000e+00 -3.2576859230060000e+00
113 -2.6413235830809998e+00 -3.3029132024040000e+00 -5.7696618328050002e+00
114 -2.4973162307919999e-01 -6.5839950200709996e-01 -3.8735766732810002e+00
115 1.1607048119860000e-01 1.3256859515570000e+01 6.2200232636689998e+00
116 5.9886698036529999e+00 -3.7082372123699998e+00 -4.9181304060339999e+00
117 -1.1198766715330000e-01 -5.3510683319050001e-01 -2.0775295137110001e+00
118 5.2226115781470002e+00 -1.2047399986289999e+00 4.8153051823919997e+00
119 2.8677598571480001e+00 -1.4986604701049999e+00 8.1811840353110004e+00
120 1.8911647271820001e-02 4.8843856382060000e+00 2.7814076055569998e+00
121 8.1559676187880008e+00 -4.7399960192899998e-01 -1.3459787893870001e+00
122 6.1371793178320004e+00 7.7287029243239997e+00 -1.8726981414390000e+00
123 -6.2711603573680001e+00 -1.6912708007530000e+00 -8.3863588780510001e-01
124 1.1764160473300000e+00 2.7844512154949999e+00 1.2626515672020000e+00
125 9.4155285291400004e-01 -6.1511932982979998e+00 1.4684121759330000e+00
126 -3.2363882314299999e+00 -7.0920630575220001e+00 -4.2989857403520002e+00
127 3.6746070684540002e+00 -5.4306145783359998e+00 1.7455033672920000e+00
128 -2.2783194339069999e+00 3.3245417756700002e+00 1.2800965011309999e+00
129 2.5589948108699998e+00 -5.0116814793389997e-01 3.2524307149820002e+00
130 4.9161248037950001e-01 -2.8652517434379998e+00 1.3517910266640001e+00
131 6.4317582680259999e+00 5.9685601825129997e-01 5.4454474977110001e+00
132 -4.6686803309459997e+00 2.5459705111890001e+00 -2.3250613395620001e+00
133 -2.7716147138500000e+00 -1.9917438690810001e+00 -8.3567956506830008e+00
134 -1.6671133149310000e+00 -4.0565882573929999e+00 1.1120418338860001e+00
135 1.6844188418049999e+00 -1.0727982729600001e+00 3.5690855283689999e+00
136 7.4441601531349999e+00 4.1271489928039999e+00 -5.7090748463740004e-01
137 -3.1189002464410001e+00 -1.0746866027749999e+00 -7.7989338134190004e-04
138 -6.8638140587149996e+00 3.4216587163000001e+00 2.7384978213300002e+00
139 9.9149264378739996e+00 6.0194803069220004e+00 7.9935363224650002e-01
140 6.9769833825270000e+00 -3.0662563765119999e+00 -6.6322294335210001e+00
141 2.4958418489010001e-01 3.1969361661739999e+00 9.9712238905499995e-01
142 5.3262539558170001e+00 1.5409340092579999e+00 2.9325931530939999e+00
143 2.3507876860980002e+00 2.8985980095419999e+00 9.2088964736559997e-01
144 -7.9871309503419996e-01 -7.2021973393570002e+00 -5.9961488354079995e-01
145 3.1336881371760000e-01 -5.9945576123770001e+00 1.0164433544779999e-01
146 -7.4035813491519997e+00 -3.9791059168019999e-01 8.6365966464330004e+00
147 -2.0636421126250002e+00 -2.7888309052800002e+00 -2.5306445060409999e+00
148 -5.1988751969919997e+00 3.7970240599129998e+00 -3.8545776725760001e+00
149 -1.0511471750060000e+00 1.3880736744930000e+00 6.3800248136870001e+00
150 1.4310591198600000e+00 4.1908571608910004e+00 3.5263767104190000e+00
151 1.4205841424640000e+00 -1.1804836584409999e+00 2.8926004540330003e-01
152 -1.6732196050399999e+00 1.5092678234529999e+00 1.7320901053080000e+00
153 4.1427495087309998e+00 2.7814289802990002e+00 -1.1479774990780001e-01
154 -1.3293366248680001e+00 -1.6127054697600001e+00 1.1278072171369999e+00
155 5.2342510759980003e+00 4.0387206260080000e-01 2.9243662828449999e+00
156 -2.2816166885940001e+00 -6.2105499323110003e+00 -7.8947139953110002e-01
157 7.7610078333669996e+00 7.0985275691099998e+00 -6.3325341402569997e+00
158 9.3849887188039993e+00 -4.5725588823520003e+00 -2.3625847536959999e+00
159 -2.0147312234929999e+00 -9.2576154568989999e-01 -1.5256684263230000e+00
160 -5.2428121053109997e+00 -4.4941545335270003e+00 2.3011056857160002e+00
161 -5.7903281678729996e+00 -5.4383887004140004e+00 6.0255396140390001e-02
162 -5.3504816327100002e+00 7.2076718016990000e+00 -1.2565430212769999e+00
163 5.4126023770350002e+00 1.4447849281970000e+00 -4.7318753265350004e+00
164 -6.6124858352620004e+00 -1.4489938987890001e+00 3.0820676819289998e+00
165 -2.2718634776019999e+00 5.1768209105330003e+00 -3.7298254620120002e+00
166 -1.3789793750390000e+00 -3.4575257105519999e+00 1.3407392415580000e+00
167 -7.7671494335589997e-01 6.2380440765970002e+00 2.3849842945319999e+00
168 1.9623912243090000e+00 -3.3285994983560001e+00 2.6882402041339999e+00
169 5.1560851061979995e-01 -5.5955169454479998e+00 8.7073276459200000e-01
170 -4.7313291844979997e+00 -2.5391035381889999e+00 2.1954066088320001e+00
171 2.5095618871299998e+00 3.6348201592630001e+00 2.8462087811929999e+00
172 1.0466123428450000e+00 -3.6719245363969999e+00 4.0229811102220001e+00
173 1.0222582050530000e+00 3.0131197592399999e+00 5.3678586200450003e+00
174 1.2217484364740000e-01 1.8257794986130000e+00 -1.6280717314460000e+00
175 -7.0269232340289998e+00 -5.2395250830310003e+00 2.6475347515210002e-01
176 -7.8159949229040002e+00 5.9461754933449997e+00 4.6755030533199998e-01
177 1.1089369047890001e+00 2.5929951565549998e+00 2.5572761894310001e+00
178 1.0156203844200000e+00 6.5104240892240002e+00 -4.5560146044929999e+00
179 3.4492131621350000e+00 5.0584961254019998e+00 1.2301414881049999e+00
180 1.3807168068760001e+00 6.5305358772470001e-01 6.2528749255519998e+00
181 5.1825156933560002e-01 -2.8583511792960001e+00 1.3078450204540000e+00
182 -1.2850508527190001e+00 -1.1684421633149999e+00 -1.3153119080969999e+00
183 -2.1101939284490001e+00 -1.7000065923120000e+00 -3.8339585042730003e-02
184 4.4230935586209998e+00 -8.1251099919670000e-01 -1.5138159509439999e+00
185 4.9847747307589998e+00 -2.9159404262909998e+00 -5.2863526143230004e+00
186 -2.6143636175989998e-01 4.5772925534580002e+00 3.4664585442439999e-01
187 1.0361268763600000e+00 -5.2286195339620001e-01 1.1713172855750000e+00
188 -9.1796493098400003e+00 -7.1923430359490004e+00 -9.0345722903780001e-01
189 8.2802954426080007e+00 -3.1326083646940002e+00 -2.6805629112489999e+00
190 -5.2066836913349999e+00 1.6622253089489999e-01 1.4700040130370000e+00
191 -8.6280870176570001e-01 6.2378163210260000e+00 -1.2873079908620000e+00
192 1.0794320214340001e+00 3.7365324793110002e+00 1.5841623639789999e+00
