LAMMPS data file extracted from NVT dump, timestep 80000, units metal

192 atoms
2 atom types

0.0000000000000000e+00 1.6195563468200000e+01 xlo xhi
0.0000000000000000e+00 1.6195563468200000e+01 ylo yhi
0.0000000000000000e+00 1.6195563468200000e+01 zlo zhi

Masses

1 12.00000000
2 16.00000000

Atoms # atomic

1 1 5.6170814872479999e+00 1.1396392802770000e+01 1.8586711918179999e+00
2 1 1.2017926223940001e+00 1.2914451715269999e+01 2.4192034884339999e+00
3 1 6.4663050695380004e+00 4.0668863033060001e+00 3.3238646525519999e+00
4 1 8.6789412919370008e+00 1.4254099655519999e+01 1.2952503862350000e+01
5 1 4.8654068563479997e+00 5.8172012038750003e+00 1.4968608610510000e+01
6 1 1.0139441579920000e+01 4.5310642782809998e+00 1.2294938627950000e+01
7 1 4.0279858867130001e+00 9.2964979416830005e+00 1.4381825652050001e+01
8 1 1.1882819011340001e+01 1.2471239272710000e-01 9.9429924054139995e+00
9 1 1.0579335352150000e+01 6.9332232056949996e+00 1.5441173013809999e+01
10 1 -6.0842430929700000e-02 1.1639970723980000e+00 2.6596937652679999e+00
11 1 1.4188210995930000e+01 2.7734684437779999e+00 8.1856033590700008e+00
12 1 6.5789690681200002e+00 1.2093869804710000e+01 9.3694523132270007e+00
13 1 2.7866039001270000e+00 6.0643922860690003e+00 4.9287946592949998e+00
14 1 9.5180884234119993e+00 9.4363949294339999e+00 7.6940281412860001e+00
15 1 7.4683566740960003e+00 1.5874452055150000e+01 1.3450784657899999e+00
16 1 1.7741689598699999e+00 1.4532536242650000e+01 9.8198360168779999e+00
17 1 1.0505307520320001e+01 2.3867176419009999e+00 -8.3403683774420007e-02
18 1 2.8527759786179998e+00 3.7361520348480002e+00 1.2059840366580000e+01
19 1 2.5630425704430002e+00 9.1262597358250002e+00 2.1116720796110000e+00
20 1 2.5271705912819999e-02 1.0074500077410001e+01 1.4556006541970000e+01
21 1 1.3824676271780000e+01 8.9378809901119993e+00 6.5352105543499999e+00
22 1 5.4416075905929995e-01 6.3019547053569998e+00 1.4147930443620000e+01
23 1 1.1659448752499999e+01 8.8672618653280004e+00 1.0722572382899999e+01
24 1 9.5942620475300000e+00 1.4913110643800000e+01 6.2240662253660002e+00
25 1 1.2409073296020001e+01 1.2738600356779999e+01 6.6822142926270001e+00
26 1 1.3164996552350001e+01 3.1206335115830002e+00 1.3871622684049999e+01
27 1 3.6089948902429998e+00 1.1767003998850001e+01 5.8199600427889999e+00
28 1 1.4124609783400000e+01 1.3230362738509999e+01 1.1230914519870000e+01
29 1 4.3228468899220003e+00 3.4546178219309998e-01 1.0654088144030000e+01
30 1 8.2806183608420003e+00 1.0247275032930000e+01 4.8504317844280003e+00
31 1 4.9024893011920003e+00 1.7738878056280001e+00 1.5131712487040000e+01
32 1 1.3105295397030000e+01 2.0763130217689998e+00 4.1249125131540003e+00
33 1 7.7224078626369996e+00 9.4124206801960000e+00 1.1842643050850000e+01
34 1 1.4349999950790000e+00 9.0534986372220008e+00 7.7826866086109998e+00
35 1 7.5286782179329998e+00 5.2365709491360004e+00 1.0250358502010000e+01
36 1 1.5482321635400000e+01 4.8615536623500004e+00 4.9815963378439996e+00
37 1 3.4538850276180000e+00 3.8869061037189998e+00 8.0408349660149998e+00
38 1 1.2778759769370000e+01 1.0613991544579999e+01 1.4519423789410000e+01
39 1 3.1085020170530000e+00 4.0651964472950004e+00 2.1146967818269999e+00
40 1 4.0460082677829998e+00 6.9077202963450004e+00 9.9503927879529996e+00
41 1 1.3133661058160000e+01 1.5870678582029999e+01 1.4722857909260000e+01
42 1 1.0590835460930000e+01 4.3943599588020001e+00 7.4896812293260000e+00
43 1 7.8964217184800001e+00 8.6146456471050001e+00 1.4528673568810000e+00
44 1 1.0365028156550000e+01 1.2232585401790001e+01 1.0338269456210000e+01
45 1 1.5457728333530000e+01 1.0254119968369999e+00 1.1183088006800000e+01
46 1 1.5656696092880001e+01 1.3630368997370001e+01 6.7303942617579997e+00
47 1 1.3821858758429999e+00 1.0309226915260000e+01 1.1398856131850000e+01
48 1 1.2800628294610000e+01 5.6516428411080000e+00 1.0505305939739999e+01
49 1 3.9942391842839999e+00 1.2698033220099999e+01 1.2800086362580000e+01
50 1 1.1082834310659999e+00 7.7233357487020005e-01 6.1200777831369999e+00
51 1 1.4831769251400001e+01 8.7986996654029994e+00 1.5269090469219999e+00
52 1 1.2793821841900000e+01 1.1759791912460001e+01 3.1137748145969999e+00
53 1 1.0298242247930000e+01 4.1021235747229996e+00 3.1866725450779998e+00
54 1 1.3978888601610000e+01 5.1091956713859998e+00 1.1198850073550000e+00
55 1 7.1558414466290001e+00 1.8233087213779999e+00 6.9057202005759999e+00
56 1 9.1158202415290006e+00 1.2184117192000000e+01 1.5600734875720001e+01
57 1 1.1615523491850000e+01 7.6723612728410000e+00 3.7733884179360002e+00
58 1 8.0969710906260008e+00 1.1494601867559999e+00 1.0615411662750001e+01
59 1 1.1718977300770000e+01 1.5817465529620000e+01 2.8622667549870000e+00
60 1 8.8914646267660002e-01 5.7767373943690004e+00 1.0075339072640000e+01
61 1 1.1926781876060000e+00 1.5176232764250001e+01 1.5077362447610000e+01
62 1 3.4077509531580001e+00 1.5588848542179999e+01 3.7082062856969999e+00
63 1 7.0462488199460003e+00 5.9897427424969996e+00 6.4410900869410002e+00
64 1 6.0431998719250002e+00 1.4596416621370000e+01 7.1433899196109998e+00
65 2 6.2413044549320000e+00 1.1412968145060001e+01 2.8490821070550001e+00
66 2 5.0221540846660000e+00 1.1395746160470001e+01 8.4240781116749996e-01
67 2 2.3536190589919999e+00 1.2796880763660001e+01 2.6024152156530000e+00
68 2 3.0986358620270001e-02 1.3045574503130000e+01 2.2095872089820001e+00
69 2 6.5094976322109996e+00 3.2487599300059999e+00 4.1669391384549996e+00
70 2 6.3199663327269997e+00 4.9219225158129998e+00 2.5326778034360000e+00
71 2 7.6834096644879999e+00 1.4770616935910001e+01 1.3243779553720000e+01
72 2 9.7440957273250000e+00 1.3796569228479999e+01 1.2709623840360001e+01
73 2 5.7095793031579998e+00 6.4999171447539998e+00 1.4558356814690001e+01
74 2 4.0369755488059997e+00 5.0664262656219998e+00 1.5383678735020000e+01
75 2 9.4070051295959995e+00 4.6331071550690002e+00 1.3232519400119999e+01
76 2 1.0708221214630001e+01 4.2891573546549999e+00 1.1294440583220000e+01
77 2 4.6956246821979999e+00 9.4464887095000005e+00 1.3408246122020000e+01
78 2 3.4410314323560001e+00 9.1736171126909998e+00 1.5390202187340000e+01
79 2 1.2538124208730000e+01 6.8894499846729995e-01 9.1342583410990006e+00
80 2 1.1313992712390000e+01 1.5850623346240001e+01 1.0845936191390001e+01
81 2 1.0820374453860000e+01 8.0798216617889995e+00 1.5207161862870000e+01
82 2 1.0287246083830000e+01 5.8923547453890004e+00 1.5832140053400000e+01
83 2 1.5774175638190000e+01 1.9173707744040000e-01 3.2767122863060001e+00
84 2 3.7766731081040000e-01 2.0310982770770001e+00 2.0204882518659999e+00
85 2 1.3321059063040000e+01 3.4948167015850000e+00 8.5337772341410005e+00
86 2 1.5055419011840000e+01 2.0404323057439999e+00 7.8827736572299996e+00
87 2 6.1851927842840002e+00 1.1106429557500000e+01 8.9400566667980002e+00
88 2 6.9925839261330003e+00 1.3107167164040000e+01 9.7934114782219996e+00
89 2 2.3841572867240002e+00 5.1375431678309997e+00 5.5599240446109999e+00
90 2 3.1862920231240000e+00 6.9503884449709998e+00 4.3100193361579997e+00
91 2 9.3348951530149993e+00 1.0439292230320000e+01 8.2156905593519998e+00
92 2 9.8208836626709992e+00 8.4297641974540003e+00 7.1421351084930000e+00
93 2 6.7146144571470003e+00 1.5222128495970001e+01 1.9991112940669999e+00
94 2 8.3624536470319999e+00 1.6311262894050000e+01 7.6292905170549996e-01
95 2 7.9158068471989995e-01 1.4962960635500000e+01 1.0395714656670000e+01
96 2 2.5700500770689998e+00 1.4146006058070000e+01 9.0700344588630006e+00
97 2 1.1007939449700000e+01 2.7066828207269999e+00 9.1737446669650002e-01
98 2 9.9543406247939998e+00 2.0042913982910000e+00 1.5133054412200000e+01
99 2 2.2251295858639999e+00 4.3473379135799997e+00 1.2825717299770000e+01
100 2 3.4617607407050000e+00 3.0359546034870002e+00 1.1340470101999999e+01
101 2 1.3958211105530001e+00 9.3440168064829994e+00 2.2613504110979998e+00
102 2 3.7218264559800001e+00 8.9334671259600000e+00 2.0164701790600001e+00
103 2 1.5663728699160000e+01 1.0031087734330001e+01 1.3492116420189999e+01
104 2 6.3229131367930003e-01 1.0215882370450000e+01 1.5547745592009999e+01
105 2 1.4515681087999999e+01 9.4044743430800004e+00 5.7231074489560001e+00
106 2 1.3065440122609999e+01 8.4413779434170007e+00 7.2749778060740002e+00
107 2 1.5453473740370001e+00 6.9362752112799999e+00 1.4262402220600000e+01
108 2 1.5735640160399999e+01 5.6571833578020003e+00 1.4157574218950000e+01
109 2 1.2477820562430001e+01 9.5033115245219992e+00 1.0164463921179999e+01
110 2 1.0777328479880000e+01 8.1543033699999992e+00 1.1007425956850000e+01
111 2 9.1878943944560003e+00 1.4561389293470000e+01 5.2065816117010000e+00
112 2 1.0114181464820000e+01 1.5289629322500000e+01 7.2285397014420001e+00
113 2 1.2477451231710001e+01 1.1608808383450000e+01 7.0101099262810003e+00
114 2 1.2552400546790000e+01 1.3898839383580000e+01 6.5895210958190003e+00
115 2 1.4154275986669999e+01 2.4936210559590002e+00 1.3713745628680000e+01
116 2 1.2172390659880000e+01 3.7090951355480000e+00 1.4083382610090000e+01
117 2 4.0062116286089999e+00 1.2241672166160001e+01 6.7905716693049998e+00
118 2 3.3617406415779998e+00 1.1291343904390001e+01 4.7587809958819998e+00
119 2 1.5188052112610000e+01 1.3107634248420000e+01 1.1666820774820000e+01
120 2 1.3123281615290001e+01 1.3431084011650000e+01 1.0667475965390000e+01
121 2 4.4631160739459999e+00 8.9770623937490002e-01 9.6493312505599995e+00
122 2 4.2541560004449996e+00 1.5955923979560000e+01 1.1672077310910000e+01
123 2 7.3162182750709999e+00 9.9254216023050006e+00 5.3734822504280002e+00
124 2 9.2997567390710003e+00 1.0593013865030001e+01 4.3497960659509998e+00
125 2 3.9261263304909999e+00 2.0539818230210001e+00 1.4493236044970001e+01
126 2 5.8023179959659998e+00 1.5738909049770000e+00 1.5867497041320000e+01
127 2 1.3171459990480001e+01 2.0955244180900001e+00 5.2710302619979998e+00
128 2 1.3146364879900000e+01 2.1608896987450001e+00 2.9498151522299998e+00
129 2 7.7380592095559999e+00 8.2470614219660003e+00 1.1928202420520000e+01
130 2 7.7888353219309998e+00 1.0604211435780000e+01 1.1800108848040001e+01
131 2 8.0623287670919996e-01 8.1227863199700003e+00 8.0960438166329993e+00
132 2 2.0183803361349999e+00 1.0036117636069999e+01 7.4822919522760003e+00
133 2 7.5951252699180003e+00 6.3489045928180001e+00 1.0005371313190000e+01
134 2 7.4435219023040000e+00 4.1261940596700004e+00 1.0583786288070000e+01
135 2 1.5359758760680000e+01 5.6848556741809997e+00 5.8304884529020002e+00
136 2 1.5549964916600000e+01 4.0516019738719997e+00 4.1282328841520002e+00
137 2 4.1993863696049996e+00 4.7690183601070002e+00 8.1962221953990007e+00
138 2 2.7611525055209998e+00 2.9074470822410001e+00 7.8814529920009999e+00
139 2 1.2723663118790000e+01 1.0366458530850000e+01 1.3372262967959999e+01
140 2 1.2806886818200001e+01 1.0733842940650000e+01 1.5686965069979999e+01
141 2 2.2760881570630001e+00 4.8566228047979996e+00 2.1311962712030001e+00
142 2 3.9898306950740001e+00 3.2213739644319999e+00 2.0965433853839999e+00
143 2 3.5084991202680000e+00 7.6023205254499997e+00 9.1781564455669997e+00
144 2 4.6234938891089996e+00 6.3762395605169999e+00 1.0809406502330001e+01
145 2 1.3733499190400000e+01 1.5744290483320000e+01 1.5730825774650000e+01
146 2 1.2597240359770000e+01 1.5957555415850001e+01 1.3662353245909999e+01
147 2 9.6306307506650004e+00 3.8631365490120002e+00 7.9595429135469997e+00
148 2 1.1527779881890000e+01 4.9048970528340003e+00 6.9535541400570002e+00
149 2 9.0525255336819992e+00 8.7945297839549994e+00 1.2782876704140000e+00
150 2 6.7346867854879999e+00 8.3971386253180000e+00 1.6082445827239999e+00
151 2 1.0246731957240000e+01 1.3211077325470001e+01 9.6996052417049992e+00
152 2 1.0545204866860001e+01 1.1215592633840000e+01 1.0911553512730000e+01
153 2 1.3982147313260000e-02 1.9237465984940001e+00 1.1092021123220000e+01
154 2 1.4678790730410000e+01 2.1429450928700000e-01 1.1377578241589999e+01
155 2 1.5936220067660001e+01 1.3606686407060000e+01 5.5724999021180004e+00
156 2 1.5452477725000000e+01 1.3741040947149999e+01 7.8797033267670002e+00
157 2 2.2398077947439998e+00 1.0251807107510000e+01 1.2246332140770001e+01
158 2 6.2475600997449998e-01 1.0418697533640000e+01 1.0500903248640000e+01
159 2 1.2481934547560000e+01 6.0851683908509999e+00 9.4966178452150007e+00
160 2 1.3217829237149999e+01 5.2101292976100000e+00 1.1493469396689999e+01
161 2 5.0017355845360001e+00 1.2165951452600000e+01 1.2517836898980001e+01
162 2 3.0226133561399999e+00 1.3304234336220000e+01 1.3148189728469999e+01
163 2 9.8027189509720003e-01 1.5951792771950000e+01 6.7245853316749997e+00
164 2 1.2500480713119999e+00 1.7569560256929999e+00 5.5074504812629996e+00
165 2 1.4354357644329999e+01 9.5780635260239997e+00 2.2770627903829999e+00
166 2 1.5381316965160000e+01 7.8652633520609996e+00 9.4905570209269996e-01
167 2 1.2314991763860000e+01 1.1118346096720000e+01 3.9082843462799999e+00
168 2 1.3108159484290001e+01 1.2338509643769999e+01 2.1376015068949998e+00
169 2 1.0238471162700000e+01 3.2675815708929998e+00 4.0014965871210002e+00
170 2 1.0192088351390000e+01 4.9385958457210002e+00 2.3620455840379999e+00
171 2 1.3338491073700000e+01 6.0577467652690000e+00 1.4647395779960000e+00
172 2 1.4616153238780001e+01 4.1702660593229997e+00 8.2197595876950003e-01
173 2 7.7045156846609997e+00 8.6611922563090005e-01 6.4698465304940003e+00
174 2 6.5679198632190001e+00 2.7141824247219999e+00 7.3868968615909996e+00
175 2 7.9579614271040002e+00 1.2071518314150000e+01 1.5832693054690001e+01
176 2 1.0265549549579999e+01 1.2360215627750000e+01 1.5331618874389999e+01
177 2 1.2680144389890000e+01 7.5494365532970003e+00 4.2031987956319998e+00
178 2 1.0523259672720000e+01 7.6416143970950001e+00 3.3546093134100001e+00
179 2 8.8509154936740000e+00 1.5769802869489999e+00 1.1364147965230000e+01
180 2 7.3562799580810001e+00 7.2706784908650002e-01 9.7775448408310002e+00
181 2 1.1592434823740000e+01 1.5859984319320001e+01 1.6788926450570001e+00
182 2 1.1824318142230000e+01 1.5861383072150000e+01 4.0256788467340003e+00
183 2 1.0551534376000000e+00 5.1266645024070003e+00 9.0983366977980005e+00
184 2 7.1005422467019996e-01 6.2947192766439999e+00 1.1136098077700000e+01
185 2 1.7097355382160000e+00 1.6010597361900000e+01 1.5675002474819999e+01
186 2 4.3687119367420002e-01 1.4386676330520000e+01 1.4636947106630000e+01
187 2 3.5864150717280001e+00 1.5088344765090000e+01 4.7591541492439999e+00
188 2 3.1310107872200001e+00 1.6068613059539999e+01 2.6857457450290001e+00
189 2 7.9025816757629999e+00 5.6612121106420004e+00 5.7181674766809998e+00
190 2 6.2109638191289998e+00 6.3932415254960002e+00 7.1945431086570002e+00
191 2 5.4332111941179999e+00 1.5585183689070000e+01 7.3356296266719996e+00
192 2 6.6698910994289999e+00 1.3669613820970000e+01 6.7956195058019997e+00

Velocities

1 7.5059226936599999e-01 1.5144026521730001e+00 2.8223215701650002e+00
2 -7.6633728522759998e+00 -3.2797616976540001e+00 1.3298851732170000e-01
3 -6.7205495273190001e+00 4.5651145262019996e+00 -6.9780255415299997e-01
4 -3.8454291748939999e+00 -2.0100338836459999e+00 1.5571738550959999e+00
5 -3.6610128398750001e+00 5.6009400224240000e+00 -8.4762953292669996e-01
6 -3.2405067234359999e+00 -5.9381410593079997e-01 -2.7685120874660001e-02
7 -2.7798101532480000e+00 -5.2309025654610002e+00 -9.5264956834689993e+00
8 -5.0569729623540001e+00 4.0342913341419999e+00 2.7901621249700002e+00
9 4.2151827059929996e+00 1.5603279185810000e+00 -1.8668451469680001e+00
10 1.0762499934510000e-01 6.5070724755129996e+00 1.7375550327150000e+00
11 -1.5915394609510001e+01 -3.8503068715460000e+00 -8.4523658317289996e-01
12 -4.4938239531840002e-01 -8.2847003494619997e+00 -9.8631307273320008e+00
13 8.4719442763420005e+00 -7.5677283942350004e-01 5.1773171256149997e+00
14 7.6641997478709998e+00 1.3928794833370000e+00 -3.0994664476240003e-01
15 -8.4130196966500002e+00 5.1451288117159999e+00 -4.0130963804929998e+00
16 1.0622062919850000e+01 -1.4063659480020001e+00 -6.7528248632169996e+00
17 2.1528599279420000e+00 5.6515477716660003e+00 -6.2875877920440004e+00
18 -2.6851984257230002e+00 -5.1490349684880004e+00 -9.1436030294619997e+00
19 7.9998307331680003e+00 5.2334130733780002e+00 -1.5830299509480000e+01
20 -4.3548731613699996e+00 -9.7492019925690006e+00 -9.6463594863409996e-01
21 -6.0151069359960001e+00 2.3358639070249998e+00 -1.1823336991790001e+00
22 3.8114588658490001e+00 -2.4348973559429998e+00 -6.8566147602409999e-01
23 7.0866083225600001e+00 5.9796696872500004e+00 6.2061937077799998e+00
24 5.7102212059739998e-01 -2.6255573737760001e+00 -2.7859217113530002e+00
25 -4.6156719527770003e+00 -1.7695626402350000e+00 -1.7689076518439999e+00
26 3.4552625078790000e+00 2.8329387771939998e+00 -3.7734887842260001e+00
27 9.2218773750559997e+00 -2.5248092832090001e+00 -2.6707717891339999e-01
28 -5.9733168685019997e+00 -6.5727409913250003e+00 -4.3085388277560002e+00
29 6.1355458654959998e+00 5.4005386676859999e+00 9.0709695109569992e+00
30 -5.4349389039959997e+00 -1.6192878817800000e+00 5.1702608824780005e-01
31 -2.4257149000729998e+00 3.4306545297350000e+00 6.4743371057520003e+00
32 -1.2869197482900001e+00 3.7305991326269998e+00 2.1825706599569998e+00
33 -3.2584644074029998e+00 -4.1555986006349999e+00 9.8430560843350001e-03
34 -3.7504150074560001e+00 3.7353021082050000e+00 5.8594025746889997e+00
35 7.1004555516350001e+00 -4.7840596935180004e+00 7.3937247817480001e-01
36 7.5901086615160001e+00 -5.1496207202919999e+00 -6.3697325793450004e+00
37 -4.2214291967879998e+00 -2.8961115351640001e+00 9.4322857691610000e+00
38 -8.0374129490990001e+00 -3.2639277399919999e+00 5.8344925155210003e-01
39 -6.0705957183989998e+00 -5.6446438732630000e-01 3.5766795778429999e-01
40 -2.8896363607639999e+00 -1.3502207295890001e+01 -8.2675676128119999e+00
41 5.9053700451009998e+00 6.9622559856299997e+00 -3.6013621412960002e+00
42 -5.2414990392030001e+00 1.5335129256360000e-01 3.2357580577500000e-01
43 6.5011402060290002e-01 5.2034514326280004e+00 -7.9483988146219997e-01
44 -4.7103138653999999e+00 2.8557159319259999e+00 -1.9200607942570000e+00
45 -9.9794969870950001e-01 1.3342972233590000e+00 1.0092032784530001e+00
46 8.8790644434340005e-01 -2.9288679188079998e+00 1.7600171410330001e+00
47 1.0108299096870001e+01 -1.0059066712739999e+00 6.8338306920129999e-01
48 8.5665970160849994e-02 -5.4988000117830005e-01 -7.1127139385130000e-01
49 -3.1974077203019999e+00 3.8913936743880000e+00 1.0070480486599999e+01
50 2.3103191347230001e+00 5.6471099281150003e+00 8.2408642291019998e+00
51 -3.9276211507120000e+00 4.5149965316629997e-01 1.1612687646740001e+00
52 3.5407382948249999e-01 -3.9990577831129999e+00 3.2775234294879998e+00
53 6.2816526191259996e+00 3.8963997986500001e+00 8.4709723240810000e+00
54 -3.8895487502789999e-01 -1.8865013718210000e+00 5.5552244408600000e+00
55 -3.9685409520379999e-01 6.5383322911770003e+00 1.4104881923810000e+00
56 3.5765209565879998e+00 -2.8747920254890000e+00 -5.0033627379169996e+00
57 7.8847256901920004e-01 -3.5568563031179998e+00 -2.2758781033840001e+00
58 -2.5303181588040002e-01 -1.0414051663200000e+01 -4.7635394309499999e+00
59 6.5889697445830002e+00 1.4763702929770000e+00 -6.9712363085249995e-01
60 -1.7022656000059999e+00 8.5501772468780004e+00 -7.5099693821409996e-01
61 2.7147926941690002e+00 -1.0425793748100000e+01 -4.0937620720250001e-01
62 1.9925547729540001e+00 -1.5154043928750001e+00 4.0664272387239997e+00
63 -8.2525751752560002e+00 1.9532392394650000e+00 4.2099597446220001e+00
64 4.9517502769749999e+00 -2.7029259501489999e+00 3.4260756151470000e+00
65 1.0918440231860000e+00 -2.8928489316550001e+00 5.6323310715639998e+00
66 4.1371928141340000e+00 -2.8621638534470000e+00 -5.8066827317379999e-01
67 3.1305004211549998e+00 -2.0581737341349999e+00 -4.5829077439210000e+00
68 -4.4876749322500000e+00 1.6329111428540000e+00 1.1089649346149999e+00
69 -1.6633115047550000e+00 -3.3128147145839998e-01 -2.0626795086919998e+00
70 4.4208640195489997e+00 -4.9811776407609998e-01 -4.6775454009330000e+00
71 -1.4110275301480000e+00 -5.4049029000000004e-01 6.2187270368939995e-01
72 -3.2171894698350001e-01 4.0930135252210000e+00 -3.0981034107659999e+00
73 -2.2191907047339998e+00 3.6128150707759998e-01 -3.3141783856260001e+00
74 5.5344910720509999e+00 1.8985984606149999e+00 -1.7625560956949999e+00
75 5.1302601919650002e+00 3.4112036376880002e+00 4.6823321041770001e+00
76 -3.6695004760219998e+00 8.3796905392700005e-01 3.3960012191479998e+00
77 2.0018291642869999e+00 -6.8501609883710000e+00 -6.4567189951159998e+00
78 -1.1333387058930000e+00 1.0235229361239999e+00 1.8023738685919999e-01
79 9.3129542947330002e+00 2.8240024252940001e+00 -5.5988157717630005e-01
80 -1.7263299382899999e+00 -3.2889824787370001e+00 4.0333312328459998e+00
81 1.7473229001530000e-01 8.4572910634389997e-01 6.8334557173150001e+00
82 1.6545747523740000e+00 4.0076812253319999e-01 9.4474718754499998e-01
83 2.2445600697339998e+00 -1.7582270214610001e+00 -6.6837283039350002e+00
84 -4.5913454341530002e+00 3.5158427475480001e+00 -2.6493011823460000e+00
85 -1.1481213890519999e+00 -2.1361462300239999e+00 -3.0682683608020000e+00
86 1.3151298761040000e+00 1.9112073646909999e+00 -5.6934464592060001e+00
87 -2.8698199676080001e+00 -1.8340287904849999e+00 2.6375917909149998e-01
88 -3.1410335341579998e+00 -5.3697929412390000e+00 2.3741462003280001e+00
89 -7.8262879848470002e+00 -6.1870679370430004e+00 -3.6828715217150001e+00
90 6.0982714592829996e+00 1.3978083127730001e+00 2.2548872188900000e+00
91 5.7020590866100003e+00 -7.3756028277310000e+00 -2.4639313616359999e+00
92 2.5301737843729999e+00 2.3592693680960002e+00 -1.4337297689890001e+00
93 -2.4116338075180002e+00 -2.3421288139600001e+00 9.2786551004119999e-01
94 8.3482423925920006e+00 3.7498507638419998e+00 -2.9565892546610000e+00
95 8.8711824489089997e-01 -2.6990648209010000e+00 1.5367778638750000e+00
96 3.4750619734599999e+00 1.6473653430420001e+00 8.5892070444780000e+00
97 -6.5885519952919998e+00 1.8755782648270001e+00 -4.0560411275839998e+00
98 -3.7915179579679998e+00 -8.3182430386179995e-01 -6.0425434568740002e+00
99 3.5097301137980002e+00 -1.6438893063110001e+00 9.1297782640190004e+00
100 -4.0574041292220002e+00 -2.3041571923830002e+00 -1.6530885891020000e+00
101 4.0349069281440002e+00 -4.4400291184079999e+00 -9.2754954804570000e-01
102 2.4873029523510000e+00 2.3412740025290000e+00 -1.0442876998780000e+00
103 -1.0683975003860000e+00 -5.8466806914780001e-01 4.0728336066609998e+00
104 3.9143027172320002e+00 3.7071674163930002e-01 5.8426243688780000e+00
105 9.2270389858419999e-01 -8.6183487484120000e+00 2.8433693070519999e+00
106 -3.1530226505660002e+00 -2.7407807220190001e+00 4.8908247539270002e+00
107 3.1170604052419999e+00 3.9066414160709999e+00 7.7320719008959999e+00
108 -1.8801061066410001e+00 1.1367252396180001e+00 4.5426017433519998e+00
109 1.6012432686510001e+00 2.1689610197609999e+00 -5.6636763287639997e+00
110 -2.7320148340269998e+00 -1.1760874090110001e+00 3.5791138461150000e-02
111 3.2462860762119998e+00 3.5896528023799998e+00 4.5655657844090003e+00
112 -3.3460485807870000e+00 6.2551861876219998e+00 -1.9104019896969999e+00
113 -9.4110619738649994e+00 -1.1342121470480000e+01 -5.2061071513220003e-01
114 5.3973599671140005e-01 3.9638862347370001e+00 4.3684574298390002e+00
115 -6.4495921884970002e+00 -2.9818982996359999e-01 2.4304315917000001e+00
116 4.0256215072470001e+00 -2.2334999895570000e+00 6.6974491155239999e+00
117 3.1976721216059998e+00 -3.6891551124310000e+00 -1.7600362125790001e-01
118 -4.6425744566010002e-01 -6.9078309429550000e-01 3.2125694368879998e+00
119 1.0334220830940000e+00 3.6616371521489999e+00 -6.4039056254030002e-01
120 -2.7339133485080001e+00 8.2791359209369997e+00 -4.7339014684400000e+00
121 -4.7494221142530000e+00 -5.6815734654939998e-01 8.9024893779290004e-01
122 7.2657887362060003e-01 -2.8456658483680002e+00 1.2322978169690000e+00
123 -3.5027467322089998e+00 -1.6857008734279999e+00 -1.0314904301470000e+00
124 -1.1179369834170001e+00 6.9040552934950004e+00 2.9401618433569998e-01
125 2.2784229554389999e+00 2.9417827311389999e+00 2.1832532058170000e+00
126 1.3074720614649999e+00 3.8879273952880000e+00 3.3732024438589998e+00
127 -1.8512874187240000e+00 5.8948132412529997e-01 -9.4659344943820001e-01
128 1.7879648264190000e+00 8.6753765733229997e+00 1.9181560220720000e+00
129 -1.0503962407570000e+01 1.3195909006450000e+00 -3.8565660003410001e+00
130 -6.2601213459359997e+00 -3.4709273908620002e+00 2.1898701095859998e+00
131 -1.2140825514690000e+01 -2.2381995995259998e+00 -3.0934525154990000e+00
132 -2.2005583793220000e+00 2.5858532827559999e-01 -1.8446483296239999e-01
133 -7.0644054956389999e+00 -6.2934900628100001e+00 -6.1935969276180003e-01
134 4.8091499578950003e+00 5.4362734191269997e+00 -7.8952317933680005e-01
135 7.9765764160889996e-01 -2.9052220487309999e+00 2.5916263111400002e+00
136 1.7992275839039999e+00 2.7207552402020001e+00 6.0393398844860000e+00
137 -6.0021509827899999e+00 4.0965656478749999e+00 -7.0071461559839998e-01
138 -1.7385289573300000e-01 -5.6720021744639997e+00 1.0596135958320001e+00
139 8.2712577806780008e+00 -7.6914696549570005e-01 -4.1357922623930001e+00
140 -7.6803049861560002e-02 -5.9622468745369996e+00 5.2813016626430000e+00
141 1.5325172128260001e-01 4.8471472876719996e+00 -1.3858288795839999e+00
142 -3.3973518481679998e+00 3.2968229393519999e+00 -5.0062444139410003e+00
143 2.3584963319350001e+00 -4.7845847910529997e+00 6.7709924908190002e+00
144 -7.2531782219450003e-01 2.9979144068800001e-01 7.2174883975810000e-01
145 -2.5346166984120000e+00 -6.1685201964470000e+00 1.7453294709220000e+00
146 -9.8989907862880006e-02 -2.2996467153830000e+00 4.0788441079080000e+00
147 -8.7512842908830002e-01 1.3339885152590001e+00 -2.1078871959640000e+00
148 2.6386930361349998e+00 4.0601083579869996e+00 -1.5128713065799999e+00
149 -3.9690874105649998e+00 8.6353438343800004e+00 -8.9924991073889995e+00
150 1.0364956062460000e+00 5.4950584418429997e+00 3.6876050869089999e-01
151 -5.4380398833030004e+00 -3.3678662140580000e+00 6.5751878915350004e-01
152 4.8926819427080002e+00 3.1981237213710001e+00 -1.3867058502020000e+00
153 2.3137106427659999e+00 6.2257435943599999e+00 -1.0389734951059999e+01
154 3.4075792162559999e+00 -1.3019542670319999e+00 -7.1047178486820002e+00
155 4.8103126475550004e+00 1.1915825448490001e+00 -7.6546924775670003e-02
156 -9.1230048396730004e-02 -2.1951795117350001e+00 -1.7078870161040001e+00
157 -8.2779859331210004e-01 -1.1436591192820000e+00 -3.1189280164880001e-01
158 4.5898681825200001e+00 5.3023514657750004e-01 -3.1126514346440000e+00
159 -1.8748609318400000e+00 2.6842877334990001e+00 -9.0496180636050000e-02
160 -1.3867407472640001e+00 4.4226318191459999e+00 7.9173451086629998e-01
161 2.3191121211499999e+00 3.6512964824609999e+00 8.6346087323370003e-03
162 -1.9465115976209999e+00 -7.9682774593649999e+00 -7.4608894335639997e+00
163 6.0891568071469999e+00 6.5197610495350000e+00 7.9820522602379995e-01
164 -7.2053507847290001e+00 -1.9526309270000000e+00 -2.3632868053110001e+00
165 4.5335837207129996e+00 5.9529656600430003e-01 -1.3007928596800000e+00
166 -4.0753216385160002e-01 -1.0178771641190000e-01 3.6067080753830001e+00
167 1.8589386754930000e+00 9.3821529614569998e-01 4.8183323654140002e+00
168 -2.2847451447000000e-01 1.9036555717040000e+00 -1.8254630935749999e-01
169 4.0572665749580003e-02 8.0118544000559999e-01 -4.0278448245609999e+00
170 -3.0092822483820001e+00 3.5133151830010001e+00 4.2611883377580000e+00
171 5.6923086550709998e+00 9.4839814836030004e-02 -1.6177109403220000e+00
172 -1.1495189483350000e+01 -5.6901489085590002e+00 -2.4545974243609998e+00
173 4.4587829583290004e+00 -5.4303366536960000e+00 5.1494518063130004e+00
174 4.5392551627410000e+00 -3.5255371852140001e+00 2.9351548760999999e+00
175 2.5264298380380001e+00 3.2269176332680001e+00 -2.7424148822920000e+00
176 7.1627384219460000e+00 1.8996924238230000e+00 -1.2091230467880001e+00
177 9.9538700217349996e-01 1.1844048405970000e+00 -3.3149486476179999e+00
178 -1.1106547070199999e+00 -1.0573381950200000e-01 -3.4986178249330000e+00
179 6.7194038043470004e+00 3.6000535791339998e+00 -1.4202521711420000e+00
180 1.3203460253970001e+00 -3.0750050697400000e+00 -7.4668553582759998e+00
181 -2.8137797525139998e+00 -2.6409149244660002e+00 -1.9887177822869999e+00
182 4.6234837889730001e+00 6.6590009262479999e-01 3.3970614857650001e+00
183 3.5204901365280001e+00 2.4377401111690000e+00 2.2529329032169998e+00
184 1.8213103686659999e+00 6.6273222891070005e-01 -4.5851526019559996e+00
185 -6.1291531914370001e+00 -1.6391930367720000e+00 -3.1510291492720000e+00
186 4.7035717752639998e+00 -1.1782848600920000e+00 6.9137904822319998e+00
187 1.0699360129040001e-02 -1.8253993110290001e+00 3.1723644683900001e+00
188 1.4962826041870001e+00 6.9146531448769997e+00 -4.5290152338340002e-02
189 -1.4653432811320000e+00 -1.3973054186789999e+00 1.0274732174620000e+01
190 1.7390536279140001e+00 -3.3003483662180000e+00 1.6222745900290001e+00
191 3.2179859116170001e-01 8.3842490352840002e+00 -3.9667064202050000e+00
192 -6.0602545744990000e+00 -4.0318948458210002e+00 5.2916470407130003e+00
