LAMMPS data file extracted from NVT dump, timestep 280000, units metal

192 atoms
2 atom types

0.0000000000000000e+00 1.6195563468200000e+01 xlo xhi
0.0000000000000000e+00 1.6195563468200000e+01 ylo yhi
0.0000000000000000e+00 1.6195563468200000e+01 zlo zhi

Masses

1 12.00000000
2 16.00000000

Atoms # atomic

1 1 4.3312524326070001e+00 2.8254320269279998e-01 1.5163328111440000e+01
2 1 1.9690171283069999e+00 4.9041590633020000e+00 8.8393176263240001e+00
3 1 3.4627020594250002e+00 4.8522125378359998e-01 1.0439117776210001e+01
4 1 7.2314182267309999e+00 2.2914015145779998e+00 3.8025165687640001e+00
5 1 1.0845096637030000e+01 1.3030936591740000e+01 1.0506573198610001e+01
6 1 1.5192389857029999e+01 6.0175490723409997e+00 1.5006883168730001e+01
7 1 6.4862770455640000e+00 1.5351186414340001e+01 1.4177752095930001e+00
8 1 1.5072785410330001e+01 1.0276832731410000e+01 8.4619054027110003e+00
9 1 2.2668131175799999e+00 2.8534659702699998e+00 1.7557168100010001e+00
10 1 1.1936272536270000e+01 1.1026249355659999e+01 1.5971686903869999e+01
11 1 1.4329141324300000e+01 9.6084628796179992e+00 1.2352867053000001e+00
12 1 2.1686472687039999e+00 3.3953676076689998e+00 1.2965162541470001e+01
13 1 3.0087912905990000e+00 1.0636132155000000e+01 4.7011645094040002e+00
14 1 6.6485374435800004e+00 1.1417379759859999e+01 3.6071012089640000e+00
15 1 5.0489800852320004e+00 1.2687748440860000e+01 1.6491210246960001e+01
16 1 4.5581251395619997e+00 4.9031053950769996e+00 1.5539987083100000e+01
17 1 1.2165355610360001e+01 1.1927679068999999e+00 1.2620301146799999e+01
18 1 1.6035401715700001e+01 7.2773177736400001e+00 4.7418806776520004e+00
19 1 1.4961826663489999e+01 7.6270426635489996e-01 8.9144097786149992e+00
20 1 8.4717912768530006e+00 9.8925973880600004e+00 1.0605666518590001e+01
21 1 7.4412772710830000e+00 6.0769994868269999e+00 7.4631945049130000e-01
22 1 5.8271394243060000e+00 4.9133400404899996e+00 1.0532172872829999e+01
23 1 1.1143604920250000e+01 8.0688785298049996e+00 1.0585095371830000e+01
24 1 1.2005307766570001e+01 2.5716102592889998e+00 3.5532865494390000e+00
25 1 1.2150005263590000e+01 1.4188583345600000e+01 6.8324492841789999e+00
26 1 1.0526278562730001e+01 1.5124064046610000e+01 2.3039498500850000e+00
27 1 1.1603750504770000e+01 4.0561625210979999e+00 6.9466064628290001e+00
28 1 9.0279200380530007e+00 1.5721835840450000e+01 1.4730064799040001e+01
29 1 5.6822107574229996e-01 3.2919232259510001e-01 1.2577432343650001e+01
30 1 3.1047772008479999e+00 5.6544026586199996e+00 4.2984612158250002e+00
31 1 8.2541992723809994e+00 7.9237940260770001e+00 1.3524143197350000e+01
32 1 1.4167063428730000e+01 2.2355200083389999e+00 1.5349373986790001e+01
33 1 1.8093733712640001e+00 1.0007954994609999e+01 1.4082958595759999e+01
34 1 5.1582370826280002e+00 9.5534417465010009e+00 7.2388337496339998e+00
35 1 9.3117317832499999e+00 2.7951288045750000e+00 8.2788683576059996e-01
36 1 1.1775244681460000e+01 6.9159587644420002e+00 4.4152570553689996e+00
37 1 1.4017681336709999e+00 8.2559430220699994e+00 1.0965309069530001e+01
38 1 6.9962296671860003e+00 4.9036432978680002e+00 7.0068243065400004e+00
39 1 1.4772328161040001e+01 5.0899503618489996e+00 1.1065691418989999e+01
40 1 1.0363043829160000e+01 7.3643365998660002e+00 9.2849552563950000e-01
41 1 1.3748346961010000e+01 1.4073743231250001e+01 1.3302708357920000e+01
42 1 1.4731438030480000e+01 4.1558603480340004e+00 2.4945750034140000e+00
43 1 1.5082877095020001e+01 1.1834931933629999e+01 4.6995184372500001e+00
44 1 8.2487279014279995e+00 1.2506153598650000e+01 1.4995562474580000e+01
45 1 4.6091285332469996e+00 1.2194019215150000e+01 1.0581825647050000e+01
46 1 1.7864834487140000e+00 7.9932445887429999e+00 7.9710066791110001e-01
47 1 7.5473727190300000e-01 1.3736021762600000e+01 1.0286518576120001e+01
48 1 1.4810493322459999e+01 1.4949768612200000e+01 1.9439185938240000e+00
49 1 6.7424566837550000e+00 1.5978325520769999e+01 1.1182054287540000e+01
50 1 9.4183835309589998e+00 2.0450933925379999e+00 9.0886414954589991e+00
51 1 1.1275435628369999e+01 4.4909675666369999e+00 1.3889378592720000e+01
52 1 5.9279354749520001e+00 7.8150208781529997e+00 3.5129848753760000e+00
53 1 6.6937263676759997e+00 1.6337805257900001e+01 6.2636580115199996e+00
54 1 7.8868392605519997e+00 1.2467398632960000e+01 6.8474320108190003e+00
55 1 2.9778788728159999e+00 1.3719562060529999e+00 6.7795333749889997e+00
56 1 1.4801679655279999e+01 1.0104323952880000e+01 1.1968568252080001e+01
57 1 5.6105720195200002e+00 9.3974210782439993e+00 1.5318648565840000e+01
58 1 3.3037870526469999e+00 1.4624245332570000e+01 3.4721421987540002e+00
59 1 7.3699789630029999e-01 1.2837064706060000e+01 1.6275057500829998e+01
60 1 9.8496457913699995e+00 8.8770842528209997e+00 6.6730063098860004e+00
61 1 8.2014465999289996e+00 2.3800238258570001e+00 1.2784014288910001e+01
62 1 1.4918474514460000e+01 1.8877354118529999e-01 5.2089344724500002e+00
63 1 2.9561545980120001e+00 1.3983679267739999e+01 7.2762222912089998e+00
64 1 1.1107910194080000e+01 1.1350715193779999e+01 3.4886826359319998e+00
65 2 3.5392544804389998e+00 8.4807441747769996e-02 1.5997713975820000e+01
66 2 5.0637300986640001e+00 5.5823506543489998e-01 1.4281914893460000e+01
67 2 1.0164812248130000e+00 4.2577559304039996e+00 8.7548966964209995e+00
68 2 2.8917402015659999e+00 5.6678832586979997e+00 8.8829576472450000e+00
69 2 3.3810625521539999e+00 1.1721354332020000e+00 1.1436880488150001e+01
70 2 3.6070023906430002e+00 1.5935522940460000e+01 9.5586554901749992e+00
71 2 8.0852298667000007e+00 1.5333484351160001e+00 4.0528277019620003e+00
72 2 6.2982472301329997e+00 2.9958179322589999e+00 3.5945196243819999e+00
73 2 1.0813028549440000e+01 1.2374690316660001e+01 9.5127683817639994e+00
74 2 1.0732822024190000e+01 1.3671427583880000e+01 1.1494659095699999e+01
75 2 1.5244135320060000e+01 7.1702513278610001e+00 1.5189847524859999e+01
76 2 1.5337254699680001e+01 4.8578657819790001e+00 1.4822113920040000e+01
77 2 7.1953357926410000e+00 1.4411598893020001e+01 1.1518774463460000e+00
78 2 5.8785053788720001e+00 1.1475892813630000e-01 1.7343940087220000e+00
79 2 1.3931313297390000e+01 1.0382065655240000e+01 8.7400598325880008e+00
80 2 1.6169069337840000e+01 1.0010079048180000e+01 8.1179064110739994e+00
81 2 2.8599710084700001e+00 2.7016547638019999e+00 2.7394115675289998e+00
82 2 1.6682045306130000e+00 3.0781738674010000e+00 7.9147390026230002e-01
83 2 1.2148387572600001e+01 1.2099910321899999e+01 1.5646613141650001e+01
84 2 1.1748754559050001e+01 9.8331170912939996e+00 1.6055609295099998e+01
85 2 1.4930482160870000e+01 1.0024716988950001e+01 3.6222242670900001e-01
86 2 1.3633159572489999e+01 9.2359050615240008e+00 2.1307305262099998e+00
87 2 1.9819283078220000e+00 4.0980248232729997e+00 1.2038093189140000e+01
88 2 2.2204363314669999e+00 2.8703332512210000e+00 1.3992790517700000e+01
89 2 2.6905177039939998e+00 9.5343509439549994e+00 4.8678935070070004e+00
90 2 3.2481599437200002e+00 1.1746455864070001e+01 4.3719136295889998e+00
91 2 7.2572338536160004e+00 1.2245957302640001e+01 3.1711704071779998e+00
92 2 6.0871138780139997e+00 1.0566397031950000e+01 4.1656456115619998e+00
93 2 4.6892991381010001e+00 1.3671605857919999e+01 1.5948238409829999e+01
94 2 5.4920225239059999e+00 1.1670442458229999e+01 6.9039792808220002e-01
95 2 4.6454606968399998e+00 4.3550488839490002e+00 3.6679177484379999e-01
96 2 4.5040233331059998e+00 5.3484419343990002e+00 1.4471181483700001e+01
97 2 1.1699187917750001e+01 1.0337813499990001e+00 1.3649122067490000e+01
98 2 1.2679336209020001e+01 1.4455227229820000e+00 1.1600557524250000e+01
99 2 9.5754107382809997e-02 6.3061312796809998e+00 5.3818784345989998e+00
100 2 1.5859665358060001e+01 8.3313329878710007e+00 4.2272569020099997e+00
101 2 1.4933424493280000e+01 1.8160475771219999e+00 8.4319916750360004e+00
102 2 1.5075301260490001e+01 1.5856670145000001e+01 9.3303040062849991e+00
103 2 8.1842872309940002e+00 8.9578041428049993e+00 9.9547224241620000e+00
104 2 8.5810191465960006e+00 1.0927677515630000e+01 1.1131317744120000e+01
105 2 8.2659680122159997e+00 5.2744444840400000e+00 9.1635656371910001e-01
106 2 6.6759486657179998e+00 6.9272604334220000e+00 4.6847301350030002e-01
107 2 4.8337302892320002e+00 4.5616250230080002e+00 1.1039670674370001e+01
108 2 6.8904179828669996e+00 5.2233681948599999e+00 1.0116379780650000e+01
109 2 1.0964553886010000e+01 6.9748748337829998e+00 1.1012891194860000e+01
110 2 1.1226521587590000e+01 9.1616980495139995e+00 1.0188393066730001e+01
111 2 1.1942050124800000e+01 1.3889475576540000e+00 3.5539012211720000e+00
112 2 1.2035897148229999e+01 3.7564197314799999e+00 3.4594708790260000e+00
113 2 1.1957483646200000e+01 1.5323014416720000e+01 7.0013866242990002e+00
114 2 1.2324006660600000e+01 1.3057789075300001e+01 6.7129772620450003e+00
115 2 1.0334513237590000e+01 1.4890115720250000e+01 3.4570362319750001e+00
116 2 1.0846662989720000e+01 1.5301216029520001e+01 1.2175262122449999e+00
117 2 1.2490556712509999e+01 4.5122259178260000e+00 6.3014195797090000e+00
118 2 1.0652543362810000e+01 3.7897960140140001e+00 7.5883045303080001e+00
119 2 8.1009648728129999e+00 1.9670986624940001e-01 1.4624177592140001e+01
120 2 9.9455886066379993e+00 1.4927867692980000e+01 1.4646580196320000e+01
121 2 6.6046477501760004e-01 1.5667881334400001e+01 1.3368583613929999e+01
122 2 3.2596584882169999e-01 1.1511141681499999e+00 1.1767892343700000e+01
123 2 3.7566698578720001e+00 5.3738795110500002e+00 5.2438646570090004e+00
124 2 2.4733949388530001e+00 6.0221883967360004e+00 3.3579677541159998e+00
125 2 7.7103673955380003e+00 7.0436172816109996e+00 1.4049291739219999e+01
126 2 8.8979265142040003e+00 8.7521916483400002e+00 1.2994418990930001e+01
127 2 1.4854175944040000e+01 1.7430274156429999e+00 1.4500573049480000e+01
128 2 1.3552070014230001e+01 2.5496924604180000e+00 1.1998247452010000e-01
129 2 2.7133851390119998e+00 1.0760508566790000e+01 1.4244411782160000e+01
130 2 9.6589811908659995e-01 9.2343348550489992e+00 1.3873793783769999e+01
131 2 5.6935183923340000e+00 8.5706501962659996e+00 6.8945454242819997e+00
132 2 4.6099891712650001e+00 1.0599659757590000e+01 7.3556299325090002e+00
133 2 1.0396044756880000e+01 3.1780559376710000e+00 6.2913943342330003e-01
134 2 8.2084713897480004e+00 2.4029903733659999e+00 1.0735848079660000e+00
135 2 1.0625128095559999e+01 6.7805794565750004e+00 4.4872843797949997e+00
136 2 1.2950822589850000e+01 7.0628202166360001e+00 4.4821918487949999e+00
137 2 2.3614078270639999e-01 8.2670379165229999e+00 1.0894200430700000e+01
138 2 2.5857411001830002e+00 8.3072790472949993e+00 1.1054334534390000e+01
139 2 7.0422149477279996e+00 5.9361689345819997e+00 6.4634252064100002e+00
140 2 6.9037139483500001e+00 3.8322454689619998e+00 7.5469031548099998e+00
141 2 1.5472998432280001e+01 5.5043884294350001e+00 1.1909135363220001e+01
142 2 1.4253019254440000e+01 4.7615284125250001e+00 1.0088875470250001e+01
143 2 1.1012958117460000e+01 6.6653271280339998e+00 2.3249117227339999e-01
144 2 9.5945036471389997e+00 7.8926971703569997e+00 1.6514013986120000e+00
145 2 1.3291918084230000e+01 1.4768195375419999e+01 1.4132492265500000e+01
146 2 1.4060860135690000e+01 1.3363651408490000e+01 1.2419497530859999e+01
147 2 1.4989559865920000e+01 3.0973375804850001e+00 2.9731825974350001e+00
148 2 1.4451935565210000e+01 5.1213100744390001e+00 1.8921566839849999e+00
149 2 1.3988338864699999e+01 1.2191180790670000e+01 4.9081033501880000e+00
150 2 -7.6224160280989994e-02 1.1356320056150000e+01 4.3192909926769998e+00
151 2 9.1477995559920000e+00 1.1745605413350001e+01 1.5181599250180000e+01
152 2 7.4866415789590004e+00 1.3335151102339999e+01 1.4687925045980000e+01
153 2 4.6697102366439998e+00 1.3228490119710001e+01 1.1108537039490001e+01
154 2 4.4241028774829996e+00 1.1140637630940001e+01 1.0086927063050000e+01
155 2 1.9792145145800000e+00 7.1721776248499998e+00 5.2278963289510002e-03
156 2 1.5786374659469999e+00 8.8600163886790000e+00 1.5344050305400001e+00
157 2 3.0496341419849998e-01 1.3481958810460000e+01 9.2085068088999993e+00
158 2 1.3325728278490001e+00 1.4006450309860000e+01 1.1299167058520000e+01
159 2 1.5499998900320000e+01 1.4160345189199999e+01 2.4796989001530001e+00
160 2 1.4137712491389999e+01 1.5736872020320000e+01 1.3891956224780000e+00
161 2 6.9164284442959998e+00 1.5100086703850000e+01 1.1931852605180000e+01
162 2 6.4738494965989997e+00 5.6415430454990001e-01 1.0349959100850000e+01
163 2 9.2643616287470003e+00 2.9834612265420000e+00 9.7718030196149996e+00
164 2 9.6635958894579996e+00 1.0564448566319999e+00 8.4556925655399997e+00
165 2 1.2363752641210001e+01 4.2517762489550002e+00 1.4238637389279999e+01
166 2 1.0245865858800000e+01 4.8344056191420002e+00 1.3426105752230001e+01
167 2 7.0176903091370004e+00 7.7422427219810004e+00 3.8001366040129998e+00
168 2 4.8551222663219997e+00 7.9730317172150000e+00 3.1045580510300002e+00
169 2 6.9985006799970000e+00 1.5238602851720000e+01 6.0299588812650002e+00
170 2 6.5178939740599997e+00 1.2336189959160000e+00 6.6189624962050004e+00
171 2 7.5320856237339999e+00 1.2667967189730000e+01 7.9323233890170002e+00
172 2 8.2882995720530008e+00 1.2270775671410000e+01 5.7760724672929999e+00
173 2 3.1979518622510001e+00 6.2511412547690004e-01 5.8983254307610000e+00
174 2 2.7713764130819998e+00 2.1085802386519998e+00 7.6643242490440002e+00
175 2 1.4051397423539999e+01 9.2954860624499993e+00 1.2356275296740000e+01
176 2 1.5590708296040001e+01 1.0933835725120000e+01 1.1628780651850001e+01
177 2 4.6865337761130004e+00 8.9067835047410000e+00 1.5897261494649999e+01
178 2 6.4822596270790003e+00 9.8905965870629995e+00 1.4724118916789999e+01
179 2 2.1924854562179998e+00 1.4890155733860000e+01 3.7108262514099999e+00
180 2 4.4247513436740000e+00 1.4333963894369999e+01 3.2161260168940000e+00
181 2 1.5921391540869999e+01 1.2794723247429999e+01 1.5703413965879999e+01
182 2 1.7238926620420001e+00 1.2941766005870001e+01 6.8482699084389997e-01
183 2 1.0842634777220001e+01 8.3997186760790008e+00 7.0695179696360002e+00
184 2 8.8195445003059998e+00 9.3159358191630002e+00 6.3146835263780003e+00
185 2 8.9810286956029994e+00 1.6417592123330000e+00 1.2284681952630001e+01
186 2 7.3569842039499997e+00 3.0439519777360000e+00 1.3256583870100000e+01
187 2 1.5012945177690000e+01 1.3549068115570000e+00 5.3058015883350000e+00
188 2 1.4840788251910000e+01 1.5228794901280001e+01 5.0713732033680001e+00
189 2 4.0301955372849996e+00 1.3798854998360000e+01 7.7005418872969997e+00
190 2 1.9194091198240000e+00 1.4130641706060000e+01 6.7145575964740001e+00
191 2 1.1556002423760001e+01 1.1705620317570000e+01 2.4581035884009999e+00
192 2 1.0763945839130001e+01 1.0886892285120000e+01 4.5494893215480001e+00

Velocities

1 1.4501877235439999e+00 -2.2679880627800002e+00 -1.7841663417450000e+00
2 4.7925458864720003e+00 -2.8922009982930001e+00 -5.2403456992170003e+00
3 3.1198746672469999e-02 3.2266971189970000e+00 -6.7013423147750002e+00
4 2.2178145620700001e+00 -3.3805653365430000e+00 7.8010445533840000e+00
5 -2.7400703808680000e+00 3.3023413731439999e-01 -1.3697752210290000e+00
6 5.0251768669589998e+00 1.7437588691070001e+00 1.4319301756889999e+00
7 -5.8271910473090003e+00 1.8853890666090001e+00 -3.8274401560819999e+00
8 -2.3625275691160001e+00 7.4138238797320000e+00 -3.9626418163979999e+00
9 -5.8657405064429999e-03 -4.4700452617959998e+00 -2.6581277487260002e+00
10 2.1645462525740000e+00 2.5050542209689999e+00 -3.6180887891200002e+00
11 2.2581382058360000e+00 -1.5564234563279999e+00 -9.6946941371329998e-01
12 -3.8332116818060000e+00 5.7118886645790001e-01 -6.9368927163269998e+00
13 -7.4488127751590005e-01 7.6081749550980005e-01 1.7964400546479999e+00
14 -1.0566086530330001e+01 2.3340584672119999e+00 3.2352763032279999e+00
15 -6.5273579600079996e+00 -3.8900188018500002e+00 4.4106301497510003e+00
16 1.3832312460139999e+00 -2.3210826014969999e+00 -6.9983392044430004e-01
17 -4.1833515144469997e+00 4.2745109879280001e+00 -8.5474524223269999e-01
18 -1.6555475977470000e+00 -1.2912324815689999e+00 -1.9983115836580001e-01
19 2.4271267993720000e+00 -3.4625228226429998e+00 6.8504717815039999e+00
20 -4.3522941216069997e+00 5.2179472570380003e-01 5.8982274245010000e+00
21 1.0574944385180001e+00 -8.7044020820779995e+00 3.7894121524629998e-01
22 4.2034789722420003e+00 -7.1307239847529997e+00 -6.1952987207429997e+00
23 -3.9978694534839998e+00 -1.4826915203330000e+00 6.6391766197219999e+00
24 9.9698648436519992e+00 7.4596283193790001e+00 2.2092879655490001e+00
25 2.3452854042350002e+00 -6.2655407106220000e+00 1.8496767054550001e+00
26 -6.7156053601180004e+00 -7.9020514281969998e+00 -9.3352439196369996e-01
27 -5.9884427542810004e+00 4.7188635885309997e+00 -2.3370943642449999e+00
28 5.9156415857690003e+00 -4.3172514195899998e+00 2.1961052211290002e+00
29 1.2575838770059999e+00 4.3549898762019996e+00 7.5349154278779995e-01
30 1.3238820275970000e+00 2.3946892207860002e+00 2.2425604963999999e+00
31 -2.4533439339749998e+00 7.2761313223579996e-02 -2.3276950767539999e+00
32 4.5634102496900004e+00 -3.3220971489309998e+00 -7.2897168037750004e-01
33 -2.3640759237150002e+00 6.2738836275490000e+00 8.7919935060879995e-01
34 8.9502667263699998e-01 8.6851257526389993e+00 -8.9347860284540008e+00
35 7.5414980371290001e+00 1.7362128638559999e+00 -1.8850103857200000e+00
36 2.3559146524300001e+00 6.6700503863830001e+00 -4.4391728192490003e+00
37 1.1824830203839999e+01 1.1887545818380001e-01 -4.4288693158490000e+00
38 2.2156310349620001e+00 -2.7567352888630001e+00 -8.6337609202820005e+00
39 -3.2179261191410000e+00 5.9148238299739999e+00 6.1516652897719997e+00
40 -4.7869334985830000e-02 3.8304421169220002e+00 -2.0781295162869999e+00
41 1.6677831160050001e+00 -8.3636301630630001e+00 5.5565958806810001e-01
42 4.2444228919990001e+00 1.4642579729559999e+00 2.3808160316620000e+00
43 -2.2423868682719998e+00 -2.9699385219370000e-02 -3.9279293668070001e+00
44 -9.6653306759250004e+00 -9.6091542091300006e+00 2.2950792157489999e+00
45 1.0273847828330000e-01 -9.6145981790879997e-01 5.7578292647450002e+00
46 -2.1678420791159998e+00 2.2044963781350000e+00 -7.7201105383910003e+00
47 -5.1929447055970002e+00 -1.9144012133880000e+00 -4.8403835008389997e+00
48 -2.6026426179379998e+00 2.5374919210539999e+00 3.3946891361990001e+00
49 1.0868369780439999e+00 -7.3366232240370000e+00 4.0337672892310001e+00
50 -5.3216988291050005e-01 1.7195698530440000e+00 -3.2060240754599998e+00
51 1.1601392302480000e+00 -1.8406469125389999e+00 8.6796543144370002e+00
52 -4.1678525480060002e-01 -9.0122379207129999e-01 -1.9854479679840000e+00
53 -5.5445478093120002e+00 3.2108184166560001e+00 3.1515481704490000e-01
54 -5.8496322468579998e-01 7.1467988529020001e+00 -2.2606767532270000e+00
55 6.1509110706729997e+00 -6.6581302303250001e-01 2.9894104359429998e+00
56 -3.9944218854170002e+00 -1.6397180300889999e-01 -3.6741840561379999e+00
57 6.3150542105980001e-01 8.6376807595349998e+00 -3.7965169346129999e+00
58 -6.8450011328839999e-01 3.8748349485650002e+00 3.4198791814540002e+00
59 -8.2394483106990002e+00 -2.7733689525970000e+00 4.8345927417660004e+00
60 5.7979568780359996e+00 -4.8122540455490004e+00 -1.9634843664790000e+00
61 -2.2998452442250001e+00 -1.2780231694360000e+00 -4.3442706143210001e+00
62 -4.5556366007470001e-01 5.3317627913720003e+00 1.9533798775780000e+00
63 8.1748721469949999e+00 8.8571807054000001e-02 4.2742784023210001e-01
64 2.2797515605040002e+00 -1.7033432583660000e+00 5.4590376208210003e+00
65 -1.4697326823800001e+00 -1.3566409776580000e+00 -6.6504021744490005e-01
66 -3.0785929649830002e+00 -3.0605832847170000e+00 4.0953345107889998e+00
67 -6.3136520748639997e+00 5.5165379048789998e+00 -2.8213697059489999e+00
68 4.4413307257970001e+00 -5.6595480346349998e+00 -8.4206104558279993e+00
69 -1.6244570432970000e+00 4.3814483094930001e-01 -1.1362164737020000e+00
70 -1.7347687669130001e+00 2.4089293949099999e+00 2.1309472467530002e+00
71 2.1926457291350001e+00 8.5083081967600005e-02 -5.0967792858339998e+00
72 2.6355661251439999e+00 5.7130082731720000e+00 3.6228032268470001e+00
73 -1.8877933452960000e-01 1.1383779020810001e+00 1.0011356919000001e+00
74 6.7260830398609999e+00 -9.0796459513850003e+00 5.3244079923370002e-01
75 1.1221169059610001e-01 -8.8775286950170003e+00 1.8615288061680000e+00
76 -6.8832177898279996e+00 1.3227583747500000e+00 -2.7658308684190001e+00
77 2.1418044802920000e+00 -9.2859792004139996e-01 1.4771189028589999e+00
78 6.3591339850770003e+00 2.3425016961840000e-02 -3.3647361372479998e+00
79 2.7030346042410001e+00 5.1874473938790002e+00 -4.0659008403010004e+00
80 7.0940933971020002e+00 2.6514287511800001e+00 2.0346909552160000e+00
81 2.3164234325159998e+00 5.0966484108860000e+00 4.5895480895520002e+00
82 -4.3066713654409998e+00 -4.6151775710029999e-02 -5.0979507087700000e+00
83 -2.8020206117509998e+00 3.4480523197589998e+00 -1.3170422598369999e-01
84 -2.7239350877780000e+00 2.7705253805950001e+00 6.0284496792719997e+00
85 -1.6807538726339999e+00 9.4108859786239996e-01 -1.8437838095200001e+00
86 2.3412333272770001e+00 1.9758700878730000e+00 -2.8268601104050002e+00
87 -6.0072651436970004e+00 7.5145320923009995e-01 -6.1334854884650003e-01
88 1.9355783946189999e+00 3.7506375767070002e+00 1.1285812471179999e+00
89 -2.5122120666110002e+00 -4.4453271373850001e+00 7.7471579852039998e+00
90 -5.3086810142870000e+00 1.9684807910610000e+00 9.2007973854879999e-01
91 3.7954471697700001e+00 9.8428780667860005e-01 6.2400224071720001e-01
92 -6.3062540755040004e+00 5.8775732203739999e+00 -6.5825581248400002e+00
93 3.3647758296780000e-01 -7.5033934584699997e+00 2.8580529260350001e+00
94 4.1747000179659999e+00 -1.2975304455590000e+00 1.6146141097290001e+00
95 4.5831857714400002e+00 -3.5637635268669998e-01 -1.0392547814830000e+00
96 3.3052629592390002e+00 -2.6877551885069999e+00 -5.3229122113890002e+00
97 3.2496466164630000e+00 6.4405179967119999e+00 4.3907303081529996e+00
98 -2.1317958433060000e+00 -6.8963291509479996e+00 -1.3027229647909999e+00
99 -2.5893331553030001e+00 -4.6223796875799996e+00 6.9392315302530001e+00
100 3.9396909003330000e-01 2.8942709464920000e+00 -2.0643031571980002e+00
101 1.6367982450930001e+00 8.0521826652530004e-01 2.4509592576640000e+00
102 4.5823286513259998e-01 2.6547087396719999e+00 1.8384119445339999e+00
103 -4.0194679161940003e+00 5.1891929241129997e-01 -6.8645761707830000e-01
104 3.8133881808729999e+00 5.3497434650290003e+00 -7.3703394259699995e-01
105 -1.4014905931620001e+00 -3.1268959405320000e+00 -4.5775239472660001e+00
106 6.0261641823440004e-01 6.4192685164860004e+00 -2.3375280565760001e-01
107 1.0281111673670000e+00 -4.4954397971870002e+00 4.4140811604990002e+00
108 -1.2053086826200000e-01 1.4297491304040000e+00 4.7699464050160003e+00
109 1.1896489586210000e+00 -2.2645402756739998e+00 1.1270432983710000e+01
110 3.8597790166900001e+00 4.5203741254259997e+00 9.1249351822019997e-01
111 -8.8756360387040001e-01 -7.2820967764690003e-01 9.1424721243700002e+00
112 -1.3643406304700001e+00 5.3103505360550001e+00 -1.4053911827140000e+00
113 -3.0143310642799998e-01 5.6270720092310000e+00 4.5981914109369999e+00
114 -9.3195767648249994e+00 -1.8898015748679999e+00 -2.9630212937970000e+00
115 -9.5767783804700002e-01 -1.2915129959120000e+00 6.4252981987469999e+00
116 -4.0243795868560001e-01 2.8657947023869998e+00 -3.1632978246260000e+00
117 -5.3818198586559998e+00 3.8920767684270001e+00 3.1639686031390002e+00
118 3.9011441839340000e+00 1.3824194951690000e-01 -1.7841459573359999e+00
119 3.7432356000930000e+00 3.0876363339610000e+00 -4.1054485867160002e+00
120 -4.0268135620859997e+00 3.4459985508909998e+00 4.6978215602770002e+00
121 -3.9767017684860000e+00 -9.0578979862969999e-01 -1.3239633923110000e-01
122 3.5306705211440002e+00 -4.0877736623169998e+00 -1.8901883078260000e+00
123 -6.9586783535420000e+00 3.3194708609950001e+00 3.5284872107099998e+00
124 -1.7136468478660001e+00 -2.5526017477149998e+00 -2.0450683134580001e+00
125 2.6883889112479999e+00 2.7921902854140002e+00 -6.7878612252190003e+00
126 3.6606117824750002e+00 -1.2386039783550000e+00 -8.2454706484419997e+00
127 3.3525709403459998e+00 -1.5281003683700001e+00 -3.4831455685880002e+00
128 -3.9725358683840000e+00 5.5664264758080000e+00 2.8196956055430000e+00
129 -2.6802349352590000e+00 5.5545657237419999e-01 -1.4027570062310000e+00
130 5.1970018253910002e+00 7.9151773864560004e-01 -2.8490239760609999e-02
131 -1.9132899985330001e+00 -5.0329646111630000e+00 3.4772429666860001e+00
132 4.3737826645800002e+00 -4.2194141827770002e+00 1.2524489388750000e+00
133 -1.5154454320680000e+00 -6.5516970254290001e+00 -3.8794125290329999e+00
134 -3.0972293275520002e-01 -7.9508780591120001e+00 -3.8480904099940001e+00
135 9.2523218533030005e-01 1.2868358509790001e+00 3.3496077701629998e+00
136 1.1393292446370000e+00 -8.8401154066370005e+00 -5.3465538207109997e-01
137 2.8685825091049999e+00 8.6411829317000000e-01 -9.1024991869039995e-01
138 -4.8275619279130000e-01 7.7941874509969997e+00 2.4060752625980002e+00
139 4.8416043082669997e+00 -6.2290670692479999e+00 5.7205560184110000e+00
140 1.2478821211270000e-01 -6.1031464377570002e+00 5.2656532976849997e+00
141 3.6998053618409998e+00 2.8309565172349999e-01 1.9399234676410000e+00
142 2.8807557708860001e+00 2.7149190070540001e+00 -9.2483921857650007e+00
143 -7.1061162645120000e+00 -3.3594174461400002e+00 3.6476349948289999e-01
144 4.9790374146609997e+00 -9.6547921877660003e-01 8.9901507192659995e+00
145 2.9966054160939999e+00 1.1484913717950000e+00 2.0373318026019999e-01
146 3.6815625301420001e+00 -2.6298027557500001e+00 4.4126829517110000e+00
147 -1.6725489247830001e+00 -4.7309007746380001e+00 -3.6317371689979998e+00
148 -4.0708759658610001e+00 6.2869507199910002e+00 -1.1261100158399999e+00
149 -4.6296641136550001e+00 1.4810890209740000e+00 -8.9686934070749995e+00
150 1.5789585662259999e+00 -6.1112121658910001e-01 -9.5666308364230002e+00
151 -1.5759005426940000e+00 2.3121397738799998e+00 -4.9334040884280004e+00
152 1.2970458767440001e+00 -1.4927919395799999e-01 1.5615776478629999e+00
153 -3.2443339461040002e+00 3.5189039749240001e+00 -2.6195434796289998e+00
154 2.9643998860890002e+00 7.7852200049310003e+00 -3.8926711394200000e+00
155 2.9528491928829999e+00 -2.1726452891550001e+00 -2.0914048279660000e+00
156 3.3961909307800000e+00 -1.6029578683520000e+00 5.5530518829649997e+00
157 -7.7662958478449999e+00 -3.4180728151700002e-01 2.4980300675249998e+00
158 -4.7834213680620001e+00 -4.6845723941279998e+00 -1.8996152170659999e+00
159 -6.5589179758400000e+00 -1.4579338137440001e+00 -1.0673294666169999e+00
160 1.5674311314439999e+00 3.6083299600240002e+00 4.5239049731250001e+00
161 -7.2209472345619998e+00 -1.4366224698359999e+00 -2.7879411044690001e+00
162 2.6917353351430000e+00 -5.6336327815069998e-01 -3.2613870609690001e+00
163 -2.6591171535139999e+00 3.8509285947640000e+00 -1.1497034557750001e+00
164 6.7157153395540004e+00 -3.2719062605840001e+00 1.8762959996330000e+00
165 4.6916656247270003e+00 -4.0225677939439999e+00 -2.5371321721319999e+00
166 3.1599040096070001e+00 -1.2585848266190001e+00 -1.0426633643130000e+01
167 -3.8216267597939999e+00 2.8856965278900000e+00 6.1930014054529998e+00
168 3.1964692286759999e-01 -2.8325111658030000e+00 4.1112778668700001e+00
169 2.0588675600689998e+00 2.9783363499190001e+00 -4.2605281602500000e-01
170 2.4754917094760001e+00 -3.5150738728420000e-01 7.5569630458940003e+00
171 3.4604327502440002e+00 -5.0788759599219997e+00 3.7660020828430002e-01
172 2.3609414946550000e+00 -2.3965155862719998e+00 -1.2927744885140000e+00
173 -6.7434599065439998e-02 -9.1348628151150002e-01 2.0028416275479999e+00
174 2.7098938589879999e+00 -3.9503334645930002e+00 -8.7270261918379999e-01
175 4.3062743662610004e+00 -6.1463929464589997e+00 -3.4820743785319999e+00
176 -4.8599032185200004e+00 2.1939353605380001e+00 -1.3928492044700000e+00
177 1.7465710305780000e+00 -3.9558669950619998e+00 4.0549983843239996e+00
178 -4.2341978076520004e+00 -1.8617756152650000e+00 -1.5455907949840000e+00
179 -7.8379594560069998e+00 3.7806448514310000e+00 -3.6785911943100000e+00
180 -3.1868453792830000e+00 3.7984372818879999e+00 7.8710653526129999e+00
181 8.4309284660700001e-01 2.9936194024649998e+00 4.8139248340020000e+00
182 4.0883740411420000e+00 -5.0331649016220004e+00 -2.6986176543839999e+00
183 -5.7078120806579999e+00 -4.8927905215159999e+00 1.0319246400010000e+00
184 -3.3212981943550002e+00 1.5015740152290000e+00 1.8954547293060000e+00
185 4.4034395202710002e+00 2.3963568467480001e+00 -2.7309999695479998e+00
186 -1.0813762652070000e+00 4.0506817854390000e+00 1.6623698540400000e+00
187 7.4079330363680000e+00 4.5514514994139998e-01 -1.5558764604319999e+00
188 -4.0647319544659997e+00 2.6965043794789998e+00 1.2925444143639999e+00
189 -5.5254416488409996e-01 -3.3788322963230000e+00 -4.3772123263999996e+00
190 3.0937638534910001e+00 3.7541218003710002e+00 2.8104007614769999e-01
191 2.2144457793979999e+00 -1.8715629401030001e+00 -4.4959022643419999e+00
192 -2.3561564675389999e+00 1.6968149622640001e+00 9.2775568507070005e+00
