LAMMPS data file extracted from NVT dump, timestep 1240000, units metal

192 atoms
2 atom types

0.0000000000000000e+00 1.6195563468200000e+01 xlo xhi
0.0000000000000000e+00 1.6195563468200000e+01 ylo yhi
0.0000000000000000e+00 1.6195563468200000e+01 zlo zhi

Masses

1 12.00000000
2 16.00000000

Atoms # atomic

1 1 5.5305392986839996e-01 1.4345000221219999e+01 1.5260198509800000e+01
2 1 2.0568451118850000e+00 1.3535332490789999e+01 6.6417627939250004e+00
3 1 1.2568828413630000e+00 1.0276189981430000e+00 2.3117464503640002e+00
4 1 6.6528077486499999e+00 1.5744577639490000e+01 4.0705029294340003e+00
5 1 9.6109885500040004e+00 9.9225532719979999e+00 1.0045503935610000e+01
6 1 1.9552576992120001e+00 1.2451117700999999e+01 1.2443606709110000e+01
7 1 3.9728648746660000e+00 4.0236098810729999e+00 2.8791649527100001e+00
8 1 1.1882663777450000e+01 6.7151534374119999e+00 8.8057140981520003e+00
9 1 1.6046644074840000e+01 9.6184701725289994e+00 1.4680659344590000e+01
10 1 4.7193056537700002e+00 8.0772033296219998e+00 2.5711341303839998e+00
11 1 6.3586755654739999e+00 9.0446552256930008e+00 1.3794986323520000e+01
12 1 1.0991329763140001e+00 1.2983499125480000e+01 3.4329706108079998e+00
13 1 4.6334232366020001e-01 5.2090487132150001e+00 4.5735000958979999e+00
14 1 1.0270143838299999e+01 3.1459987034869998e+00 1.4549079631270001e+01
15 1 7.3574341841709998e+00 2.2535381767189999e-01 1.0951825567389999e+01
16 1 1.1299156628050000e+01 1.3511640622140000e+01 4.0986318803969999e+00
17 1 1.4205750303640000e+01 6.0749921212859999e+00 1.4905929819570000e+01
18 1 1.3108992197539999e+01 3.1665361901929998e+00 1.0846796834059999e+01
19 1 7.9347171599959996e+00 8.9531980245960003e+00 2.2964573223550002e+00
20 1 1.3678398552630000e+01 4.1586838582110000e+00 6.6680181675580004e+00
21 1 1.1772694934420000e+01 6.2596584329590002e+00 1.5577766488380000e+00
22 1 1.0414192919460000e+01 2.7892967162250000e+00 9.0660871951880004e+00
23 1 1.0657880272280000e+01 5.9742737821140004e+00 1.2447381068629999e+01
24 1 1.2857007486110000e+01 3.2112571455990002e+00 2.6693973950180001e+00
25 1 3.1140774811030001e+00 1.4088792262280000e+01 9.4493623995630003e+00
26 1 5.0659331097000004e+00 1.6112236896959999e+01 4.5461170078180002e-01
27 1 1.7579633515630000e+00 9.4243441066500004e+00 4.6429136665190001e+00
28 1 7.1305056153389996e+00 2.6544987373700000e+00 7.5409963573330003e+00
29 1 1.1717222130810001e+01 9.5679598324779995e+00 4.9621575413440000e-01
30 1 4.4916340043170004e+00 7.0935946637929996e+00 6.9797559921080001e+00
31 1 9.5003668672360000e+00 9.7508746191890001e+00 6.0234277954630002e+00
32 1 1.4021907062630000e+01 8.4117697850659994e+00 1.1832350824060001e+01
33 1 8.0412085004539993e+00 6.9962337895099997e+00 8.7704444682809992e+00
34 1 4.9268902531340002e+00 1.2031984274879999e+01 3.8616982323859999e+00
35 1 4.8480605407650001e+00 3.4795489925299998e+00 1.3558041546609999e+01
36 1 3.1081824977040000e+00 7.0554150288539996e-01 1.1993136288870000e+01
37 1 1.1374380699980000e+01 1.3633622436740000e+01 1.1002951279920000e+01
38 1 5.8694024542699996e-01 1.0165431772720000e+01 8.5553475242539996e+00
39 1 5.4663438848269996e-01 1.8644206927789999e+00 1.5093400311090001e+01
40 1 1.0364684928519999e+01 9.7406409415899997e-01 6.0164150835839996e+00
41 1 1.4604744673490000e+01 1.6071026934079999e+01 1.2941490807179999e+01
42 1 1.0657617084649999e+01 1.0901316874500001e+01 1.3417124504209999e+01
43 1 1.4859029637110000e+01 1.2093253579140001e+01 1.0764662624640000e+01
44 1 3.2841221027429999e+00 8.2630648250390006e+00 1.1948328032079999e+01
45 1 2.8082905314350000e+00 1.1972460303890000e+00 6.2739945296629998e+00
46 1 4.7674456567750001e+00 4.0450457021900004e+00 1.0143749534250000e+01
47 1 1.4013790989129999e+01 1.6173158438560002e+01 8.9411243264730000e+00
48 1 8.4046889420349995e+00 1.2385142742390000e+01 3.0877619258610001e-01
49 1 1.1362883240670000e+01 1.4221089023519999e+01 1.4936235016650000e+01
50 1 9.5635369967149995e+00 8.1811009434680004e-02 1.5807914767510001e+00
51 1 1.5317387507079999e+01 8.4132020700519998e+00 2.4121451641139999e+00
52 1 4.1283146563540002e-01 4.4095286986100000e+00 1.1848358964159999e+01
53 1 8.0292383646829997e+00 1.3465194999480000e+01 7.5120590862520000e+00
54 1 2.9678641359709999e+00 1.0917336891350001e+01 9.4848137247760000e-01
55 1 7.3599330100670004e+00 3.4706350344580001e+00 3.1409905005029999e+00
56 1 1.3361429829690000e+01 1.7043427632760000e-01 8.9875140711900003e-01
57 1 9.2324723311929997e+00 6.8370451773810004e+00 4.4695855588500004e+00
58 1 7.0943316704250003e+00 5.5016221207850000e+00 1.5486830145410000e+01
59 1 9.9444340510450002e-01 4.7479122761859998e+00 7.9907344999759999e+00
60 1 1.3686334612500000e+01 8.8630853638900007e+00 6.7897989565029997e+00
61 1 4.6466569590660001e+00 1.0574372522910000e+01 7.9179056467660001e+00
62 1 1.4796756214149999e+01 4.2851002814709999e-01 5.5392138217540001e+00
63 1 1.7162923217490000e+00 6.6308927737359999e+00 1.5880291585080000e+01
64 1 1.2576173104640000e+01 1.2065617938180001e+01 7.6761280918799999e+00
65 2 1.7028847179700000e+00 1.4451521485610000e+01 1.5292100500109999e+01
66 2 1.5579607462089999e+01 1.4234087628019999e+01 1.5153852512089999e+01
67 2 2.8116223801609999e+00 1.4407403729920000e+01 6.4273295415289997e+00
68 2 1.3042728415760001e+00 1.2695799450810000e+01 6.9878748690980004e+00
69 2 1.1591748914250000e+00 1.6142717275230002e+01 2.7156000806490002e+00
70 2 1.4481855287850001e+00 2.1420267654749998e+00 1.8871802042150001e+00
71 2 7.1154238194410002e+00 1.5311799182590001e+01 3.0817255424450001e+00
72 2 6.2693190455309997e+00 1.6177082386610000e+01 5.0979063401430000e+00
73 2 9.8637433057460004e+00 9.0817522917540003e+00 1.0797351005570000e+01
74 2 9.4672853358680005e+00 1.0786486547710000e+01 9.2493770144519996e+00
75 2 2.9875393131950001e+00 1.2221752754580001e+01 1.1922722096619999e+01
76 2 9.1208484834269998e-01 1.2639226555100000e+01 1.2999008583869999e+01
77 2 4.1702458121869999e+00 3.5486913093900001e+00 3.9179730466259999e+00
78 2 3.6525632581809999e+00 4.5093612109830001e+00 1.8489834518730000e+00
79 2 1.2771745431839999e+01 6.2427681281940002e+00 9.4202181684890007e+00
80 2 1.0994565059119999e+01 7.2318918785610000e+00 8.2356505930580006e+00
81 2 3.1317193086989997e-01 1.0068251596370001e+01 1.3713388856660000e+01
82 2 1.5357261034790000e+01 9.2519616172859998e+00 1.5563875149679999e+01
83 2 4.6874851285529999e+00 7.9056994062220003e+00 1.3911072968739999e+00
84 2 4.8927896343409998e+00 8.3539066965869999e+00 3.7172895410239999e+00
85 2 6.7633186223730002e+00 8.6779385176550008e+00 1.4826582513040000e+01
86 2 6.0512055121059998e+00 9.4893443858360005e+00 1.2752087816100000e+01
87 2 1.6158822829649999e+01 1.3120361738160000e+01 3.6325371101460000e+00
88 2 2.2463975674899999e+00 1.2907096094670001e+01 3.2169696781539998e+00
89 2 1.4000400226200000e+00 4.5684066325449999e+00 4.2749083651750004e+00
90 2 1.5750775629150001e+01 5.9140121752140002e+00 4.8866415864609998e+00
91 2 1.1393795629460000e+01 3.0807248891439998e+00 1.4974669474570000e+01
92 2 9.2002297032240001e+00 3.2049452087089998e+00 1.4080826751100000e+01
93 2 6.3447704351310001e+00 2.4747727375650000e-01 1.0303107681529999e+01
94 2 8.2948043057959993e+00 3.0942572559600001e-01 1.1670292767970000e+01
95 2 1.1571210351380000e+01 1.4576432481970000e+01 3.7581677279829999e+00
96 2 1.0994546759320000e+01 1.2436235033679999e+01 4.3516926114810000e+00
97 2 1.5233312975450000e+01 6.2608025129550002e+00 1.4331400986149999e+01
98 2 1.3219515441200000e+01 5.9794930911000002e+00 1.5560166023590000e+01
99 2 1.3697684892800000e+01 2.7084900562829999e+00 9.9511654055120005e+00
100 2 1.2573788102560000e+01 3.7259765599930001e+00 1.1747461643630000e+01
101 2 7.5538193502009996e+00 9.7445211818739992e+00 3.0720772017150000e+00
102 2 8.1758196807749997e+00 8.0695287544590002e+00 1.5576372417450000e+00
103 2 1.4604458300859999e+01 3.4845111376569999e+00 6.4304914161689997e+00
104 2 1.2768980717070001e+01 4.8464361918970003e+00 6.9772813741380002e+00
105 2 1.2798035733750000e+01 6.4899205253180003e+00 2.0776453032990001e+00
106 2 1.0766715313780001e+01 6.0645792129389999e+00 1.0197246718160000e+00
107 2 1.0546611812589999e+01 3.9149428237569999e+00 8.8555198958420007e+00
108 2 1.0311329347059999e+01 1.6979880971120000e+00 9.3944164158220005e+00
109 2 1.1191019440490001e+01 6.1334540784299998e+00 1.3478264271160000e+01
110 2 1.0093926675670000e+01 5.8814870040929996e+00 1.1414807485390000e+01
111 2 1.3800308463490000e+01 2.9912437797110001e+00 2.0136056701339999e+00
112 2 1.1874276533700000e+01 3.3862588194819998e+00 3.2056963427700000e+00
113 2 3.5460676356819998e+00 1.3029109264540001e+01 9.5862097152550003e+00
114 2 2.7053956534679999e+00 1.5178920421530000e+01 9.2395434952750009e+00
115 2 4.2753025838859999e+00 3.1338830655409999e-01 1.2248069516230000e+00
116 2 5.8794587931439999e+00 1.5720364966000000e+01 1.5930195229480001e+01
117 2 1.7538829247720000e+00 8.3224110626390004e+00 4.2495347938409997e+00
118 2 1.7866288611150001e+00 1.0538690272020000e+01 4.9514210054749999e+00
119 2 8.1404278332750000e+00 2.0361351936240002e+00 7.5539262977829997e+00
120 2 6.0910931580899996e+00 3.1523717139040000e+00 7.3867960687589997e+00
121 2 1.1776995979900001e+01 9.5846669386559995e+00 1.5503963703909999e+01
122 2 1.1624046028510000e+01 9.5009202152390007e+00 1.6483588376110001e+00
123 2 3.4851311043240001e+00 7.4940712833390002e+00 6.4697566342770001e+00
124 2 5.5035950942719998e+00 6.8939231869090003e+00 7.4711194920470003e+00
125 2 1.0567697900710000e+01 9.2271552378529993e+00 5.8976821244549997e+00
126 2 8.5089653345869998e+00 1.0362042692130000e+01 6.2260727453060003e+00
127 2 1.5136701688650000e+01 8.0645999992430006e+00 1.1591406682530000e+01
128 2 1.2924709332180001e+01 8.6412114678519991e+00 1.2153193704580000e+01
129 2 8.0811210747750000e+00 5.8676104297759997e+00 9.0688650707059999e+00
130 2 8.0867907396369993e+00 8.1534127580979998e+00 8.5333254281569992e+00
131 2 5.3103732580080001e+00 1.3041287429050000e+01 4.3436047778200004e+00
132 2 4.5933992568260003e+00 1.1136239706420000e+01 3.2252730550280000e+00
133 2 5.4015768478509996e+00 2.4558034701890001e+00 1.3689265272169999e+01
134 2 4.2839726554380002e+00 4.5104507029320002e+00 1.3518804482809999e+01
135 2 3.1748626439890000e+00 1.8169380980370000e+00 1.1711335491620000e+01
136 2 3.0253537625120002e+00 1.5748849624389999e+01 1.2163427735710000e+01
137 2 1.2544240439819999e+01 1.3664983728030000e+01 1.0837896832989999e+01
138 2 1.0237619954070000e+01 1.3540042774880000e+01 1.1142746033070001e+01
139 2 1.6961444656460001e+00 9.9688426827090009e+00 8.5363876154899998e+00
140 2 1.5655024691100000e+01 1.0488603694260000e+01 8.4318710948909992e+00
141 2 1.5784860193989999e+01 2.5614946166579999e+00 1.5269902646800000e+01
142 2 1.5334941615419999e+00 1.2536696215630001e+00 1.4989844555940000e+01
143 2 1.1276892685389999e+01 1.6584854307410000e+00 6.3017146259410000e+00
144 2 9.4067826139629993e+00 4.0832807505530000e-01 5.6884913400899997e+00
145 2 1.3463352366860001e+01 1.6004435456640000e+01 1.3129281877120000e+01
146 2 1.5770012895190000e+01 1.6050082488190000e+01 1.2972383933890001e+01
147 2 9.6975473239289993e+00 1.0312313118010000e+01 1.3806036824450000e+01
148 2 1.1706091927639999e+01 1.1399631513250000e+01 1.3075631700750000e+01
149 2 1.5558614691030000e+01 1.3028628648450001e+01 1.0532064503870000e+01
150 2 1.4272447215800000e+01 1.1117878415290001e+01 1.1056705170590000e+01
151 2 3.1489629355459998e+00 7.8794037243939998e+00 1.3041036901149999e+01
152 2 3.3745721470649999e+00 8.4825716584399995e+00 1.0788221849299999e+01
153 2 3.3978799762900000e+00 1.6569118353579999e+00 7.2062595638430000e+00
154 2 2.2440948149170001e+00 7.9294435558679999e-01 5.3390459518369999e+00
155 2 3.7419674155529998e+00 4.5397488883279999e+00 9.9607510124150007e+00
156 2 5.8861914038569996e+00 3.6839467132190000e+00 1.0408412791960000e+01
157 2 1.3030047430980000e+01 1.6011392384670000e+01 8.3063002271670001e+00
158 2 1.5005621450830001e+01 1.1404412330120001e-01 9.5693243863230002e+00
159 2 9.2156981969099991e+00 1.1684642058230001e+01 7.4837695595730003e-01
160 2 7.6151370191980003e+00 1.3108663889390000e+01 1.6058232355649999e+01
161 2 1.1001458392620000e+01 1.4717036362640000e+01 1.3935511241570000e+01
162 2 1.1654998144409999e+01 1.3679000280180000e+01 1.5968068294100000e+01
163 2 9.8287998645340000e+00 1.5123938099520000e+01 1.3482239372850000e+00
164 2 9.3590754603450002e+00 1.2178139067480001e+00 1.7299891091470001e+00
165 2 1.5299361043150000e+01 7.3079950596380003e+00 2.0137776026730001e+00
166 2 1.5226281835020000e+01 9.5321621465269999e+00 2.7382767136320001e+00
167 2 1.2634187949800000e+00 5.1043808063520002e+00 1.1455847011560000e+01
168 2 1.5682697794419999e+01 3.7782610804390000e+00 1.2214512666799999e+01
169 2 6.9597004377309997e+00 1.3969206868360001e+01 7.7100976727579997e+00
170 2 9.1202751553840002e+00 1.3085858426060000e+01 7.2705598587570002e+00
171 2 2.1321171230750000e+00 1.0233418892030000e+01 1.3686901657849999e+00
172 2 3.8167800139560000e+00 1.1626245929290000e+01 5.1082067726869995e-01
173 2 7.5615168069939998e+00 2.3691825294790001e+00 3.4452005306580000e+00
174 2 7.1182624249930004e+00 4.5858684415950002e+00 2.8622493820210000e+00
175 2 1.2276384031319999e+01 3.7188450645510002e-01 4.5804949145430002e-01
176 2 1.4476621670420000e+01 1.6133912064690001e+01 1.2485518090920000e+00
177 2 8.2262167603189997e+00 7.3547762528099998e+00 4.7131028535950001e+00
178 2 1.0216457683090001e+01 6.2807648414930002e+00 4.3127835151939999e+00
179 2 6.0740145306950000e+00 5.0298037819410002e+00 1.5833299031730000e+01
180 2 8.1616573915119996e+00 5.9022801381179999e+00 1.5254582120929999e+01
181 2 2.0171299119740000e+00 4.5877058615420001e+00 7.4497733346489996e+00
182 2 1.6106361811420001e+01 4.8992409178129996e+00 8.4476849343799998e+00
183 2 1.3491402247810001e+01 9.5219700215680003e+00 5.8356384161069998e+00
184 2 1.3907752635400000e+01 8.2588928769140004e+00 7.7688824199260003e+00
185 2 4.7674357791570001e+00 9.7311680034069994e+00 8.6971768360570003e+00
186 2 4.5325507192199996e+00 1.1384002193390000e+01 7.1031062148649999e+00
187 2 1.4134935086560001e+01 5.7991665160929995e-01 4.5790860548860000e+00
188 2 1.5563126891360000e+01 2.4548890019200001e-01 6.4444829857980004e+00
189 2 1.8233615089490001e+00 5.7157247402340001e+00 1.5162625010719999e+01
190 2 1.6194171259429999e+00 7.5538060657599999e+00 3.9020113572300003e-01
191 2 1.2511933663720001e+01 1.2940904668170001e+01 6.9081181364799997e+00
192 2 1.2606223003089999e+01 1.1218303396280000e+01 8.4650484537549993e+00

Velocities

1 -4.5906202774359999e+00 1.7670180410059999e+00 5.0676162133110001e+00
2 1.9578506282360000e-01 -4.4752006298599998e+00 -8.5206197243259996e-01
3 5.5182700504410001e+00 -2.6476704986069999e-01 1.0010286272630000e+00
4 -6.0132111368179997e+00 -6.3045962468740004e+00 1.1314648727329999e+00
5 -5.1311918702890003e-01 -8.5628835256860008e+00 7.4521385934079998e-01
6 -6.0092724860890003e+00 -1.3973696573220000e+00 -6.0873332605870001e+00
7 6.2098184210090004e+00 5.6034971115959999e+00 1.8499342411710000e+00
8 -7.1155819758560002e+00 -1.3129266504790000e+00 3.0633379189959999e+00
9 5.6002756363480000e-01 1.1053366915380001e+00 1.3759338985700001e-01
10 -3.9535355367239999e+00 5.1978606189530003e+00 3.6749475950260000e+00
11 9.9080320841610003e+00 -2.8679173746380000e+00 -1.5460788934100000e+00
12 -3.6073287986430000e+00 -8.0718166015270008e+00 -6.5307833659160002e+00
13 -3.8329589579040002e+00 4.6197769675569997e+00 6.3784926934830004e+00
14 9.6892893227080001e-01 5.4064457908580001e+00 -7.8582291139839997e+00
15 7.6543241890750000e+00 5.5681041593009999e+00 -7.5990658031980001e+00
16 1.2097738816420001e+00 6.5452582833540003e+00 -2.5813393127830002e+00
17 1.9526498881840000e+00 8.8565631735619998e-01 -2.3937577119259998e+00
18 5.9071925251539996e+00 9.8626691555059998e-01 7.5193509247000003e+00
19 1.5348730541980000e+00 -3.5509251574660001e+00 3.4051382466230001e-01
20 4.1661543266310003e-01 5.4845822593160003e+00 -3.5995257636579998e+00
21 -7.7144814015870002e+00 4.2464288468299998e+00 -1.6483410836260000e+00
22 3.7890719989220001e+00 6.4078912639069996e+00 1.2641925349820000e+00
23 5.1045355177119998e+00 4.5826749334389998e-03 -1.7213157023279999e+00
24 1.9766447953669999e-01 -2.2831288675139998e+00 7.2320261509849999e+00
25 -6.0030755383430003e+00 1.5230321098740001e+00 -5.1885659494520002e+00
26 5.5951391325399999e+00 -2.8761959255590002e+00 2.6248852847449999e+00
27 5.9079957030410002e+00 1.8297608023820000e+00 1.0616400319540000e+00
28 1.7573854820129999e+00 -5.6448380168870003e+00 2.9353027551810000e+00
29 -3.1588713085250002e+00 -7.2573282597060000e+00 1.1407197600840000e+00
30 -4.2320904045230001e-01 -2.4827563417560001e+00 3.1345078238919999e-01
31 2.1162515705049998e+00 3.5556763492869998e+00 -6.9711965495649997e+00
32 1.4458417412040001e+00 8.5893582983880001e-01 -4.1032838646130001e+00
33 -7.5519501204069996e+00 3.4391247166620000e+00 3.3928153297360000e+00
34 -5.7452637170149998e+00 1.3086208711989999e+00 -3.6507452123139998e+00
35 -2.8257735014710001e+00 -1.9577740583729999e+00 -1.4759480393480000e+00
36 -1.8068161492540000e+00 -7.2787636593530003e+00 8.6692242775100004e-01
37 7.0493466017810000e+00 -6.9981586104610005e-01 -3.2598819279460001e+00
38 6.4443432607469999e+00 -6.6983412044430004e+00 -7.9954844117459997e-02
39 4.0721584678439998e-01 1.6111555893210000e-01 -3.5447038849319998e+00
40 8.3351855385320004e+00 -5.5513010399439997e+00 1.3065812645690000e-01
41 4.0351968086359999e+00 5.0539378212179997e+00 2.8225018720889999e-01
42 5.4253096368479996e+00 1.6488607859910001e+00 -3.2823046868410000e+00
43 1.0505717844570000e+01 1.9469361237859999e+00 1.6676630174720000e-01
44 2.5230415029079998e+00 -7.5368027639059996e+00 -4.3886302659130001e+00
45 -2.8742814699200001e+00 -4.2869506479170001e+00 -3.4635833613299999e-02
46 -6.1978168439200001e+00 -3.5464697946510002e+00 4.6451066282419999e+00
47 8.8096964313839994e+00 9.8644152134920005e-01 -3.5272771815080000e+00
48 -3.0689978877059998e+00 -1.0983254155480000e+00 -7.5656061198510005e-01
49 -1.7462507767819999e+00 -1.1592316712530000e+00 -8.2052859554800008e+00
50 -9.7011594997649997e-01 -3.1431717293650001e+00 -1.1800324461780001e+00
51 -4.7062894734569998e+00 -2.6654565842700002e+00 -4.7677373050579996e+00
52 -5.4020389156390003e+00 -3.8129389999050001e+00 6.9554594831829997e+00
53 3.4393607845980001e-01 9.3651776690150008e+00 2.8075949457339999e+00
54 5.3749701648189996e+00 4.4153292993389996e+00 -2.5711186163930000e+00
55 -2.9684086682589998e+00 4.8931769147240001e-01 4.2773340391019996e+00
56 1.1026802838750001e+00 2.2458847837780000e+00 -4.4447741491319999e+00
57 1.8186082445480001e+00 1.7335754422040000e+00 -8.0670795362900005e+00
58 3.2689133235800001e+00 7.0191215264180000e+00 3.1420362100040000e-01
59 -4.7215355690159999e+00 3.3744112278940003e-01 5.8269214928439999e+00
60 3.8634250134629999e+00 -1.9040561682510000e+00 -2.5656760515169998e+00
61 2.1104950373180000e+00 5.0267042613179997e+00 2.7392780140639998e+00
62 2.1344018213179998e+00 5.5073764489319998e+00 5.9346468585790002e-01
63 1.8415568678530001e+00 4.2742928906340003e+00 4.2411969420810003e+00
64 8.5720441748130005e-01 -3.5341513275160001e+00 3.4040925567140001e+00
65 1.3813721518030000e+00 -1.1617795468240001e+01 5.8448481716870004e+00
66 3.8835411688449999e+00 -2.4645511355170000e+00 9.8111602041830004e+00
67 -6.1484135886850000e+00 -7.2367923944079999e+00 -2.0585698085419999e+00
68 3.5517802280809998e+00 -5.1812437455870004e+00 2.5755363205499999e+00
69 -2.1438732877650000e+00 1.3726991823450001e+00 1.4984814032280001e+00
70 -1.0970175898570000e+00 -7.3592862614760000e+00 -9.7650378647749996e+00
71 6.2231625254810004e+00 4.5469155353930004e+00 2.4096256763959998e+00
72 2.0386308673050002e+00 -1.4439867526400001e+00 6.7437698767079999e+00
73 -3.2920668384890002e+00 3.3276776858189998e+00 3.8386643618570000e+00
74 4.8364233416730001e-01 -3.7479365921970000e+00 -6.1314315545989997e+00
75 -7.6096499150170001e+00 -4.4976178774399997e+00 -9.3589466229639999e+00
76 4.2148276794289998e+00 3.1901038583700001e+00 -9.9997386011400002e-01
77 7.2222356913960004e+00 -9.0458287017460002e+00 4.3239891383009998e-01
78 -6.3475313189330000e+00 2.9646274254690002e+00 3.9929297200470000e+00
79 -3.4396812719540000e+00 2.2962587848350000e+00 -2.0546562182849999e+00
80 -2.6414941500269999e+00 -7.5230989141819998e-02 -3.4216173350900001e+00
81 3.5961678596750000e+00 -2.1737884935250000e+00 -2.1400480049859998e+00
82 -5.4840493361849996e+00 7.8903758524649996e+00 -8.6198316570540001e-01
83 4.3968496828710002e-01 6.1439742845019998e+00 8.8675935325419992e+00
84 1.0500140308840001e+01 -5.6720587125989996e-01 2.1989624414920002e+00
85 5.0120981419590001e+00 2.6244800156700001e+00 2.3536690416239998e+00
86 1.2996098544929999e+00 5.4550336229749998e+00 3.1971817259180003e-02
87 1.2531441924900000e+00 6.7930407755919997e-01 3.3375876914120002e+00
88 2.5230644300680001e+00 1.0813311334130000e+00 -4.1530530753840003e+00
89 -2.7448640819570000e+00 5.1743667363339996e-01 8.8980262105039998e-01
90 -4.3205145105289997e+00 1.5870713776290000e+00 -3.3761650687580000e+00
91 -3.2882241525119998e-01 -5.3962654917719999e-01 1.2809712259999999e+00
92 1.2229420655970000e+00 1.7781528888639999e+00 -7.2742285497430004e+00
93 1.8723558241530001e+00 -6.1845234838620000e-01 -4.3101936286249998e-01
94 2.7128110410430000e+00 -8.3229231206540000e+00 1.8818968770969999e+00
95 4.9086454747300001e+00 -6.6833114118630004e+00 1.5927412255050000e-01
96 -4.0752854878219997e+00 -7.4986993061410001e-01 1.6493846974310000e+00
97 -1.3877278049449999e+00 -7.8685891847390002e+00 3.5180358753180001e+00
98 1.0171780403290001e+01 -2.7859954390819999e+00 -2.1540059944959999e+00
99 4.8586657533280002e+00 4.5465087888060003e+00 -4.7213482140550003e+00
100 -1.2309098073259999e+01 1.3275325760779999e+00 2.2432722794300002e+00
101 9.2370546307560003e-02 2.0223953793849998e+00 -4.1101684347449998e+00
102 1.8231468916680000e+00 -5.1216940552379997e+00 -5.3212056815109996e+00
103 -4.2141282905270003e+00 3.8231235334610001e+00 -1.3301687877340000e+00
104 1.6095476614240001e+00 2.7848117016590002e+00 1.1173303630860001e+00
105 3.5673918109580001e+00 -2.4842360716240002e+00 7.2772107835330002e-01
106 -3.9047466896560001e+00 -1.2333735483920001e+00 -2.5486011006210001e-02
107 -4.6777845113140000e+00 -8.3546859798809994e+00 -9.7205094101720002e-01
108 2.3580639971199999e+00 2.7673767889910001e+00 3.3727829358510002e+00
109 -1.3649631393299999e+00 -1.8668749009329999e+00 4.8804084913510000e+00
110 -2.7347261011490001e+00 -3.0529513491490001e+00 3.4911387391830001e-01
111 -6.6065626582109997e+00 1.6085310080149999e+00 -5.7495007875040005e-01
112 3.9700265338300000e+00 1.3450023352280001e+00 -2.3606721984439999e-01
113 -4.4084729489259997e+00 -2.9796156776389999e+00 2.9563290897690000e+00
114 -7.2185772586399999e-01 -2.8156621426380002e+00 2.1518891404570000e+00
115 -2.7321531799469998e+00 1.1426983648150001e-01 -2.7553214517429998e+00
116 -3.0040054530420002e+00 4.6461179827630000e-01 8.6374925006580003e+00
117 -4.6363843668150002e+00 1.2636100106560000e+00 3.1083842446330001e+00
118 1.1444512855529999e-01 -3.5157115903779999e+00 -3.4887322724600001e+00
119 -7.9557291403289998e+00 -1.4575201861500001e-01 8.8595730703999998e+00
120 -5.9584426743069996e-01 -3.0451411566169999e+00 3.0333098048629998e+00
121 -3.6522311577309998e+00 -2.8323218614300001e+00 -6.6759964683369999e+00
122 -1.2373067208249999e+00 6.2829475737839999e+00 1.7758942578910000e+00
123 -2.8070724926890001e+00 3.0956980649800001e+00 -4.0850453726840001e+00
124 -1.7113175797839999e+00 1.3028901542519999e+00 -2.0270800851530000e+00
125 7.7641602040460000e-01 7.4648266433800003e-01 -5.7062488909680003e+00
126 -5.2583435032599999e+00 4.4279766856389999e+00 -1.9915535183110000e+00
127 7.8764101541080001e+00 1.8509855149440000e+00 -5.3497396478030002e+00
128 -7.7065917678650004e+00 -4.2045513950919999e-01 -2.7157413599339999e+00
129 3.8016653695090001e+00 -5.0625146447210003e+00 -2.1005889512840001e+00
130 4.9601860390799999e+00 2.6174918672629999e+00 2.1795839197359999e+00
131 -6.1273482106220003e+00 6.7091777847980003e+00 1.9860481865670001e+00
132 3.5197833854380001e+00 -2.3730145344580000e+00 3.5730910794169999e+00
133 -2.4924157466960000e+00 1.7986684611940000e+00 2.2500190836809999e+00
134 -3.1876285657090002e+00 8.0001028756510006e+00 1.7550407689430001e+00
135 2.1623214471160002e+00 -2.4069954683889998e+00 1.1606653348480001e-01
136 -4.4000923365380000e+00 4.2426580004170003e+00 -7.9429466688100003e-01
137 6.9104985801429999e+00 7.4472076455960003e+00 -1.9187257027060001e+00
138 1.5364718260820001e+00 6.0029852360700001e-03 2.8413982856010001e+00
139 3.3774371959920000e+00 6.1857764009800000e+00 -6.9866723730610003e+00
140 6.8435018779159995e-01 -4.2475114627290003e+00 -4.4033763010370004e+00
141 -2.9492088908200000e+00 -4.1139938030090004e+00 2.4873950640500002e+00
142 5.1306658500240001e+00 1.0196339001309999e+01 -8.6372813648580005e-01
143 -4.9550180198799998e+00 2.0327057294799999e+00 4.0155292158769997e+00
144 -1.7635401819959999e+00 6.5424101622539999e+00 1.6202236998470001e+00
145 6.3403136518460004e+00 -1.4087674669950001e+00 1.0181178032410001e+00
146 -2.4446437642580001e+00 -2.4342010634819999e+00 7.4495929438599999e+00
147 -6.5946161951580002e+00 -5.6087546953699996e-01 1.9482093200199999e+00
148 9.3233932863140001e-01 4.7620990856490000e+00 5.8986271388839997e+00
149 -6.2687786121659999e+00 -3.4306730941539998e+00 -3.9607278131640000e+00
150 3.1004001212059999e+00 4.7789215282219999e+00 -6.0155347600550000e+00
151 -4.9766580493180002e-01 -2.4184149985040002e+00 -5.9657991776690000e+00
152 1.2330133753260000e+00 -7.2661408411359996e-01 2.3336972948410000e+00
153 1.2834516461959999e+00 -1.7577254530410000e+00 1.2791135538539999e-01
154 3.4098929989750002e+00 -5.2587093753580005e-01 -1.1213910041970001e+00
155 2.5609473482550000e+00 -3.9960086067309999e+00 -2.4275461369540001e+00
156 2.5576746238760002e+00 2.0584123823309999e+00 2.3108368796930001e-01
157 -4.9822597484560003e+00 -2.8381457381150001e+00 -1.4727203775869999e+00
158 -1.1671272464150000e+00 4.0834369158710002e+00 -1.2511004365280001e+00
159 -5.9822552409809999e+00 2.7020388667859998e+00 -7.0287632619630003e+00
160 3.6360301277340001e+00 -6.8853860633170001e+00 4.4455390480729999e+00
161 -3.0827153757599999e+00 -2.2027309124170000e+00 6.7253990100439998e+00
162 8.9721978967420002e-01 5.0050904149429998e-01 5.2801922443200000e-01
163 2.9176617214939999e+00 -3.2094271227669999e+00 -6.4857714822890000e-01
164 9.6268561427920005e+00 -6.4820627115439997e+00 7.7549778051580001e+00
165 2.8368645074650001e+00 2.9133838424439999e+00 4.0816067429350000e-01
166 1.5810700339720001e+00 -2.8243078259140000e+00 -1.4114478643799999e+00
167 8.2320230297729999e+00 2.3662517075070002e+00 4.5214733841300001e+00
168 2.5048867290789998e+00 -6.8976710441430000e-01 -2.4185022857149998e+00
169 9.6954194824890005e-01 1.5969830074019999e+00 2.0830093197110000e+00
170 4.7191128000500002e-02 1.4978793376660000e+00 -5.5667576398840000e+00
171 -1.3496748802100000e+00 -2.3129002833220000e+00 -2.4434008913800001e+00
172 -2.5076819962729999e+00 -9.2486646232320002e-01 1.2895894228330000e+00
173 1.5278847436240000e+00 7.0483497170759996e-02 -6.3224038882259999e+00
174 -2.9185369888160002e+00 1.7952871231209999e+00 6.2790740633709996e-01
175 1.1946342368580000e-01 -1.2620301860120000e+00 6.5926601045150002e-01
176 -5.9366179082489996e+00 1.6272076832780000e+00 3.0749807843260002e+00
177 -8.4030189162280000e-01 1.5250355847629999e+00 -2.3300277636610001e+00
178 9.5254580547490003e-02 -6.3217408369570005e-01 3.4762653018230000e-01
179 5.8541069939000001e-01 -6.6120263522640004e+00 2.8799504043350002e+00
180 -3.1567562618720002e+00 3.8548946720870001e+00 5.7220761443520001e+00
181 3.3089531361310001e+00 -3.2489930572210000e+00 1.5943801663220001e+00
182 -2.8615519376659999e+00 -1.1448954741880000e+00 -5.8514614438849999e-01
183 1.5013093924570000e+00 3.9567939329750001e+00 -4.6770931981819999e+00
184 2.8614282710370000e+00 -1.2031750029470001e+00 2.7433800640419997e-01
185 -3.0514840160680001e-01 2.8462394403269999e+00 -2.4922238975819999e+00
186 -4.2509700462710001e+00 1.4111587894600000e+00 7.3625970092369997e+00
187 -1.4355579508740000e+00 5.2053858397560004e+00 5.3138483167009998e+00
188 -7.5688073388480004e-01 9.4277388813480005e+00 -2.0553485719640001e+00
189 -5.2309427893170000e+00 -3.1867811651159998e+00 -6.2137497955190002e-01
190 3.6970514927990000e-01 -4.0379569411510001e+00 -9.2499490898939996e-01
191 -6.8922874376910004e+00 6.7955093352000002e+00 -1.0597975573000000e-01
192 -5.5021726915239999e-01 -4.0219491422670002e+00 9.7513567824729996e-01
