LAMMPS data file extracted from NVT dump, timestep 1900000, units metal

192 atoms
2 atom types

0.0000000000000000e+00 1.6195563468200000e+01 xlo xhi
0.0000000000000000e+00 1.6195563468200000e+01 ylo yhi
0.0000000000000000e+00 1.6195563468200000e+01 zlo zhi

Masses

1 12.00000000
2 16.00000000

Atoms # atomic

1 1 1.1704198906389999e+01 2.7898014645489999e+00 7.7868267182080002e+00
2 1 1.2957145985640000e+00 1.3422460244360000e+01 1.2484113265280000e+01
3 1 4.5274887730550004e+00 2.8432387894950000e+00 3.3425232375839999e+00
4 1 2.8451946024060000e+00 1.2606198876479999e+00 1.2643093950540001e+01
5 1 1.6120765247630001e+01 3.6483261683610002e+00 1.6155874181089999e+01
6 1 1.4912482658649999e+01 1.0823988073630000e+01 9.1199277482820005e+00
7 1 7.9799761193889995e-01 9.3942386889589997e+00 5.4074183762969996e+00
8 1 1.0709195031789999e+01 1.4277195385350000e+01 7.0043724639720004e+00
9 1 1.5634699933680000e+01 3.1404884175520000e+00 1.1863075332079999e+01
10 1 2.5122963536589999e+00 5.5532177221580001e+00 1.1558162171090000e+01
11 1 9.9191381622660000e+00 1.2994825621590000e+01 1.2255337858060001e+01
12 1 7.8281955980019999e+00 8.1028274037710002e+00 1.0831484678920001e+01
13 1 8.6844782282290005e+00 7.3518574812830000e+00 7.3153202374369997e+00
14 1 8.5881332293170007e-03 1.6156682172570001e+01 4.5497934114429999e+00
15 1 1.4820046396000000e+01 1.5980188092200001e+01 1.4322084326560001e+01
16 1 7.7739982773809997e+00 4.6942513909679997e+00 1.2405115500430000e+01
17 1 8.6006831807120001e+00 3.1090523502230001e+00 1.5798123177329999e+00
18 1 3.1968663541129998e+00 7.5189211573870001e+00 8.0847683710229994e+00
19 1 4.3052601750040003e+00 1.5020292955920000e+01 2.0293020910680002e+00
20 1 2.8552807772710000e+00 1.2084253849270000e+01 3.7133109972980001e+00
21 1 8.7013850321090001e+00 1.3566313198220000e+01 2.8675826407430001e+00
22 1 1.2297507030009999e+01 6.9166580054700004e+00 1.0142508989350000e+01
23 1 1.3871155646969999e+01 6.8728245080789998e+00 6.1095247896310001e+00
24 1 5.8165816968310002e+00 4.3354267879819997e+00 8.7895544082039994e+00
25 1 1.3715730223980000e+01 8.5178077904419993e+00 1.5293725852480000e+01
26 1 1.4265892806630001e+00 8.1090629029650002e-02 9.5944764504149997e+00
27 1 1.3836218724389999e+01 1.5267079662330000e+01 9.2308895558649997e+00
28 1 4.5435535511940000e+00 6.2808791831070003e+00 5.3488189839049998e+00
29 1 1.1877799239990001e+01 1.0279189586650000e+01 5.8708885991450002e+00
30 1 7.1013348185009999e+00 2.5834776788890002e-01 1.3838177133480000e+01
31 1 7.2140831428420000e+00 9.6134748174619999e-01 4.8435782224980004e+00
32 1 1.5277283523710000e+01 1.2994832604959999e+01 6.8708256444389999e+00
33 1 3.1474251740560000e+00 1.3834332402270000e+00 6.4510208549319996e+00
34 1 7.1295178139080004e+00 1.0055307533280001e+01 3.0446816649969999e+00
35 1 1.5458834900849999e-01 9.4542869535350000e+00 1.1837101309239999e+01
36 1 4.6296508492859996e+00 7.4152004113620000e+00 1.4609355391830000e+01
37 1 6.8758961179940001e-02 1.3026812056110000e+01 1.5922123780580000e+00
38 1 1.0723685053880001e+01 1.0035127803380000e+01 2.3504031096790001e+00
39 1 1.0854504862870000e+01 1.4720460579059999e+01 1.5979452884650000e+01
40 1 1.2958576220319999e+01 1.2743031307240001e+01 2.8910918849459999e+00
41 1 1.3842178070060001e+00 5.3963714092170001e+00 2.6942361337270002e+00
42 1 1.5374200366400000e+01 9.2595674729370003e+00 2.6296237910019999e+00
43 1 1.5056316252589999e+01 3.7561423295749998e+00 4.2556553794680001e+00
44 1 1.3973311243390000e+01 4.8100944434690002e-01 1.5812404819360000e+00
45 1 4.9861797735959996e+00 3.8400829583670002e+00 1.5451243798860000e+01
46 1 1.3337818627910000e+01 1.2303833789110000e+01 1.3951338224010000e+01
47 1 2.3795966960940000e+00 1.0764283396790001e+01 1.5149246153040000e+01
48 1 1.1941547749460000e+01 6.8591774619400003e-01 1.2023750404119999e+01
49 1 1.0035183490860000e+01 5.3494044382740000e+00 4.5816350860460000e+00
50 1 7.1878538406469996e+00 6.2580892342150003e+00 1.5433222750990001e+00
51 1 1.2249991049320000e+01 4.6036830759029996e+00 1.3911155441100000e+01
52 1 1.0684366286079999e+01 1.0748782652770000e+01 9.0964165634220002e+00
53 1 4.6161659001270001e+00 1.4115485909220000e+01 1.0981454398650000e+01
54 1 7.3784172337280003e+00 1.3952192919240000e+01 6.5024591332660000e+00
55 1 6.3753733627819997e+00 1.2854002823360000e+01 1.4566176128310000e+01
56 1 6.9708596852449997e-02 6.8493002153490004e+00 1.3648155791850000e+01
57 1 8.9403849737630008e+00 1.0173420352799999e+01 1.5732955308210000e+01
58 1 1.1638147170870001e+01 1.3681105457570000e+00 3.6829376345339999e+00
59 1 5.4246439044179997e+00 1.0234305609250001e+01 7.0449127268089997e+00
60 1 1.9041759068910000e+00 3.6682188648110001e+00 8.1692989202110002e+00
61 1 5.0887454996879997e+00 1.0091797995640000e+01 1.2169646183370000e+01
62 1 4.0132256853220003e+00 8.9645334067049998e+00 1.2252706687349999e+00
63 1 7.2233453374319998e+00 1.7472629339970001e+00 9.6012479315169994e+00
64 1 2.1478590446500001e+00 1.2377739907220001e+01 8.1011169237009995e+00
65 2 1.0913841969140000e+01 2.2639102727950000e+00 7.1168017478890002e+00
66 2 1.2556961307970001e+01 3.3692805801570000e+00 8.3311353869720008e+00
67 2 1.1728758304510001e+00 1.4354519921220000e+01 1.3215090695450000e+01
68 2 1.4886965578060001e+00 1.2665126653320000e+01 1.1650498816080001e+01
69 2 3.7466499536789999e+00 2.0634183222889999e+00 2.9355002458190000e+00
70 2 5.2783761901290003e+00 3.6146282325220001e+00 3.7440558651650000e+00
71 2 1.7654310372219999e+00 9.4599973311920005e-01 1.2837058130410000e+01
72 2 3.9847692904210001e+00 1.5018006168019999e+00 1.2515586241790000e+01
73 2 9.2167360703479997e-03 2.5215187137399999e+00 2.6634369839020000e-01
74 2 1.6060681412270000e+01 4.7581526834999996e+00 1.5816982289089999e+01
75 2 1.5496406027530000e+01 1.1267864870620000e+01 1.0006379514530000e+01
76 2 1.4540143778290000e+01 1.0226358387159999e+01 8.1683338830279997e+00
77 2 1.7905915219340001e+00 9.8903383045079991e+00 4.9992991980230004e+00
78 2 1.5950577385420001e+01 9.0148878724910002e+00 5.8412798371779999e+00
79 2 1.0658006293010001e+01 1.3777922314030000e+01 8.0387938299700004e+00
80 2 1.0842162268879999e+01 1.4838261743770000e+01 5.9655012168520001e+00
81 2 1.5909108394340000e+01 3.6229808286709999e+00 1.2913931342160000e+01
82 2 1.5408488364280000e+01 2.7353333616339999e+00 1.0782691539380000e+01
83 2 3.2421602720110001e+00 4.7303222091619999e+00 1.1932176768940000e+01
84 2 1.7367595803589999e+00 6.3006144206840000e+00 1.1061969033960001e+01
85 2 9.0526921960899998e+00 1.3548689444040001e+01 1.1660539439750000e+01
86 2 1.0812510906649999e+01 1.2501644848470001e+01 1.2836386652750001e+01
87 2 6.7607944630430001e+00 8.2554306141450002e+00 1.0364204526949999e+01
88 2 8.9331552826900005e+00 7.9773558444010000e+00 1.1246867622600000e+01
89 2 9.2418313018559992e+00 6.3313941117020001e+00 7.4274938218789996e+00
90 2 8.0869152317920001e+00 8.3620750556280008e+00 7.2137930313179996e+00
91 2 6.7381138760540005e-01 7.2973911807019998e-01 4.0208520237120000e+00
92 2 1.5583696395330000e+01 1.5357889079040000e+01 5.1270454433039996e+00
93 2 1.4221833328490000e+01 1.5252310201680000e+01 1.5040240010570001e+01
94 2 1.5420432476380000e+01 4.4166890740449999e-01 1.3564085374170000e+01
95 2 7.3204236947550001e+00 5.7523954979400003e+00 1.2668635245320001e+01
96 2 8.2315444640279996e+00 3.6761437814410001e+00 1.2096935366980000e+01
97 2 9.6988443138240008e+00 3.4568522797560002e+00 1.2513034289089999e+00
98 2 7.5060594780969998e+00 2.7683072890620002e+00 1.8836570077179999e+00
99 2 4.2572339596619999e+00 7.5246712107480000e+00 8.5610933875670003e+00
100 2 2.1702369902070000e+00 7.7100093101480001e+00 7.5639623352370000e+00
101 2 3.2296978982960001e+00 1.5192265072300000e+01 2.4243767453220002e+00
102 2 5.3396910217029996e+00 1.4894828024090000e+01 1.4680992977889999e+00
103 2 2.6360875728800002e+00 1.1776752355290000e+01 2.5889013894700001e+00
104 2 2.9594328154170002e+00 1.2532864652150000e+01 4.7916776729109998e+00
105 2 8.4373291923670006e+00 1.4011327148590000e+01 3.9441353350920001e+00
106 2 8.8873620750020006e+00 1.3098491101790000e+01 1.8226261245780000e+00
107 2 1.2737872576719999e+01 6.0544311972309997e+00 1.0793374278909999e+01
108 2 1.1802278606000000e+01 7.8056363397580002e+00 9.5281942990009991e+00
109 2 1.3760361415849999e+01 6.9083436244240000e+00 4.9295766568059998e+00
110 2 1.3865895238689999e+01 6.7413704250560000e+00 7.2706190090899998e+00
111 2 5.8019404871290003e+00 4.3083670372920002e+00 9.9807720443159997e+00
112 2 5.8596061807480000e+00 4.2879286786400002e+00 7.5825415541870003e+00
113 2 1.3040235340590000e+01 9.3010199193729992e+00 1.4780139429729999e+01
114 2 1.4393034252580000e+01 7.6990353946510002e+00 1.5744704183750001e+01
115 2 2.1429770494270000e+00 9.9010389125730003e-01 9.4045238540770004e+00
116 2 7.6422875187320005e-01 1.5368296904919999e+01 9.7612420984410004e+00
117 2 1.3788181088080000e+01 1.5897723503320000e+01 8.2663784224829993e+00
118 2 1.3813914339749999e+01 1.4650945233400000e+01 1.0219590576600000e+01
119 2 5.6798002085250001e+00 6.5128966053140003e+00 5.2110912771560001e+00
120 2 3.4450204693009998e+00 5.9840685659919997e+00 5.5493237649339999e+00
121 2 1.2137519281130000e+01 1.1432260230290000e+01 5.8858876239780002e+00
122 2 1.1503245843260000e+01 9.1945511573090002e+00 6.0257939513860004e+00
123 2 6.1010142905470000e+00 -3.8300592956739998e-03 1.4363959119480000e+01
124 2 8.1612401559070005e+00 4.9019055403799999e-01 1.3337792602730000e+01
125 2 8.2848716753450002e+00 1.1190907429390000e+00 5.3099066744519998e+00
126 2 6.0991891980349999e+00 9.1434245688539995e-01 4.4037798416429998e+00
127 2 1.5103058836710000e+01 1.3450883934849999e+01 7.9239701114920003e+00
128 2 1.5359916555820000e+01 1.2481277344100000e+01 5.8369024781850003e+00
129 2 4.0546432353229998e+00 2.1124043828399999e+00 6.4500743881410001e+00
130 2 2.2783666299759999e+00 6.4836772267620002e-01 6.2892280228030000e+00
131 2 7.6870642036570000e+00 9.0539344311840004e+00 3.1994437345950000e+00
132 2 6.6733349538809996e+00 1.1113222363449999e+01 2.8014370823640000e+00
133 2 3.4869288016469997e-02 1.0127874922829999e+01 1.2806038934520000e+01
134 2 3.9454233592670002e-01 8.7587116621920007e+00 1.0912256188570000e+01
135 2 3.7206272937309999e+00 7.9163831717740001e+00 1.4027120918300000e+01
136 2 5.5656787112980002e+00 6.9693297760129997e+00 1.5201463618160000e+01
137 2 6.1110248027730000e-04 1.2666627200680001e+01 2.7347779975000002e+00
138 2 9.1583069050020005e-02 1.3390402339420000e+01 4.5900777886260002e-01
139 2 1.0923546949020000e+01 9.1026612929099997e+00 1.6460554320350000e+00
140 2 1.0461021091750000e+01 1.1010527811399999e+01 3.0029668079500000e+00
141 2 1.1223918508060001e+01 1.4947773399610000e+01 8.6417632184430004e-01
142 2 1.0299495638140000e+01 1.4475720695290001e+01 1.4949252207300001e+01
143 2 1.3387612953450001e+01 1.2002644957110000e+01 2.0893617183359998e+00
144 2 1.2522051878470000e+01 1.3437061640290000e+01 3.7842962106450000e+00
145 2 2.2580042134139999e+00 5.0741576840010003e+00 1.9848714540600001e+00
146 2 4.8003927255130002e-01 5.7503523409800001e+00 3.3876849238659998e+00
147 2 3.2583697964989999e-01 9.1492103204389998e+00 2.3839802938400001e+00
148 2 1.4259552764470000e+01 9.4868057365409992e+00 2.8351231299980002e+00
149 2 1.5319731703590000e+01 3.9083677387150000e+00 5.3810371230860001e+00
150 2 1.4827827602979999e+01 3.4706845954999999e+00 3.1498995400180001e+00
151 2 1.4673473200769999e+01 1.5948156028620000e+01 2.2258728508740000e+00
152 2 1.3255336558830001e+01 1.2687333518190000e+00 1.0400953151970000e+00
153 2 6.0637005689640002e+00 3.7235165140310000e+00 1.5034206801880000e+01
154 2 3.8354011215539998e+00 3.8871809307290000e+00 1.5787004617299999e+01
155 2 1.3845457972589999e+01 1.2744214651940000e+01 1.2948344476560001e+01
156 2 1.2922594503950000e+01 1.2025230574780000e+01 1.5055587729819999e+01
157 2 2.9116527299300001e+00 1.1631096639230000e+01 1.4506940154290000e+01
158 2 1.7579661476220001e+00 9.9343757825260006e+00 1.5718478804249999e+01
159 2 1.2057433521740000e+01 9.9889819295380000e-01 1.0889224991120001e+01
160 2 1.1767992166599999e+01 4.0788622757420001e-01 1.3124291746660001e+01
161 2 8.9878942278080007e+00 5.7069098633689999e+00 4.2218072031200000e+00
162 2 1.1099345223309999e+01 5.1227502455170004e+00 5.0094734569949999e+00
163 2 6.3595905138989997e+00 6.3977305587639997e+00 2.3602019239260001e+00
164 2 7.9859672491220000e+00 6.0447693791869996e+00 7.0097838553180003e-01
165 2 1.1481026042130001e+01 5.4644332919360004e+00 1.3666380626170000e+01
166 2 1.2987282357640000e+01 3.7035644031610002e+00 1.3983485240089999e+01
167 2 1.1820205050240000e+01 1.0732909020490000e+01 9.3051189119510003e+00
168 2 9.5022290545879997e+00 1.0789166383710000e+01 8.9183427357829999e+00
169 2 4.2012567241259999e+00 1.4908387086690000e+01 1.1760339362680000e+01
170 2 4.9580683310589997e+00 1.3467519832060001e+01 1.0026236151830000e+01
171 2 7.8703606048600001e+00 1.2925098800010000e+01 6.3701092289370003e+00
172 2 6.9070709165790003e+00 1.4971842331390000e+01 6.7877454423639998e+00
173 2 7.1814319916070000e+00 1.3479475188870000e+01 1.3953842300710001e+01
174 2 5.6026702855410004e+00 1.2196911807150000e+01 1.5150719401920000e+01
175 2 8.8952566830580004e-01 7.2048662530099996e+00 1.4402173530460001e+01
176 2 1.5372544871720001e+01 6.7040378932819999e+00 1.2885490003619999e+01
177 2 9.9331629787180002e+00 1.0232645743130000e+01 1.5093318505950000e+01
178 2 7.9330878708670003e+00 1.0052206208030000e+01 1.0064488242590000e-01
179 2 1.0508531765770000e+01 1.2711612400470000e+00 3.3267848500260002e+00
180 2 1.2712761127880000e+01 1.4448303806100000e+00 4.0786569783419999e+00
181 2 5.9306524746699996e+00 1.0469256217000000e+01 8.0452293875409993e+00
182 2 4.7712308299229997e+00 9.9615725122109993e+00 6.1135320775449999e+00
183 2 1.0160624950799999e+00 3.1725796935989998e+00 7.5293379012369996e+00
184 2 2.6192488893100001e+00 4.3763183754590003e+00 8.7651001286980001e+00
185 2 4.0361997119230004e+00 9.8626927059869995e+00 1.1686073399920000e+01
186 2 6.1484444064549999e+00 1.0324007904220000e+01 1.2677559955330000e+01
187 2 4.5436562654120003e+00 9.9452236928900000e+00 8.4862411704109997e-01
188 2 3.4233940766890001e+00 7.9824263857429996e+00 1.5901914545560001e+00
189 2 8.0868117570510005e+00 2.4740808268430001e+00 9.3845775648279997e+00
190 2 6.3327159281309999e+00 1.0465335173140000e+00 9.5902661220890000e+00
191 2 1.4744426926840000e+00 1.1435398036160001e+01 7.9835564063930002e+00
192 2 2.7283187351520000e+00 1.3393576183930000e+01 8.1901128756380004e+00

Velocities

1 -3.9319176812890002e+00 5.0777993544250000e-01 4.8039380275630004e+00
2 7.8336076498610003e+00 7.5804086961549997e+00 5.8677742556829999e+00
3 5.8899516894900001e+00 -2.2142662776729999e-01 -7.2517307175179999e+00
4 6.4171571300889996e+00 1.1244514678140001e+00 1.1183711568300001e+00
5 1.3196907959490001e+00 3.7633648280740002e+00 2.5964898192060000e+00
6 -1.6934843125990000e+00 -3.4623716100930002e+00 1.1355158555220000e+00
7 6.2452970110760004e+00 -5.2649916069220000e+00 -8.5117184010180003e-01
8 6.2567804229229997e+00 3.8515081141950003e-01 -1.1868726943579999e+00
9 6.3775476541960003e+00 1.6889905528410001e+00 -5.4841126651199996e+00
10 2.6007416853140000e+00 -4.8081132812570004e+00 4.8420140373849998e+00
11 -1.2257148480930000e+00 -2.0784055422540000e+00 -7.3394107210109999e-02
12 1.8472011866300000e+00 1.8106980625500000e+00 -4.6267164586050002e+00
13 -3.7902113946520002e+00 -7.0274301203779999e+00 -2.9384255854000001e+00
14 -3.0754074281310002e+00 -3.9240210017020001e+00 8.1519004786680005e-01
15 -8.0410185006620001e+00 2.8442726630049999e+00 7.6248101588480000e-01
16 1.7511721910519999e+00 -2.9508202856689998e+00 -3.3027729770050001e+00
17 -2.7950498438230000e+00 8.6874070138630000e+00 2.3804488896720000e+00
18 1.6189983980610001e+00 -5.0923362031970001e+00 3.3701500590340001e+00
19 -2.5583945942690001e+00 -2.7620467214950000e+00 6.0142492897600004e+00
20 1.1555693135659999e+00 -3.3082782284449999e+00 -9.7600812163609996e-01
21 -5.6250718513230002e-01 4.3087294340189999e+00 3.1421015630819999e+00
22 -1.3802584373100000e+00 -8.7987436671610002e+00 1.0156696626810000e+01
23 -3.0261734340230002e+00 -3.5325231101329999e+00 8.5355664254160004e+00
24 5.2576133108739997e-01 -3.0411930190360001e+00 -5.1921745464460001e+00
25 -1.1294469770569999e+00 6.4860595451799998e+00 -1.2902645425540000e+00
26 -4.0292503862520004e+00 4.0783131286060001e+00 2.3708966199889998e+00
27 -4.2046345441730004e+00 1.1308614656150000e+00 1.1497579988300000e+00
28 -2.6910954488660002e+00 -1.2159732035649999e+00 1.5881703149160000e+00
29 3.1788918747290000e+00 2.9519212851960003e-01 9.2887809787050002e-01
30 9.8199808738519998e+00 5.5600142762750000e+00 2.7421300655110001e+00
31 1.7943542643160000e+00 -4.2476060076650004e+00 4.0146141273170000e-01
32 5.0381531500180001e+00 7.3319012316869996e+00 3.1233278916570000e+00
33 -1.3435678743160000e+00 5.1591415816249997e+00 3.2765101721760002e+00
34 2.0641992190599998e+00 -1.4476865930620000e+00 -5.0641731871750002e+00
35 3.6485683082180000e+00 1.3829098308150001e+00 3.4610459666030002e-01
36 2.4449666429110000e+00 -7.8824807492879998e+00 3.8817991297979999e+00
37 1.3120341578270000e-02 -7.4075551327079996e+00 3.3347886426870001e+00
38 1.8110312809030000e+00 -5.0527157951649997e+00 2.5673880627529999e+00
39 1.0870449500370001e+00 8.5794067697610004e+00 -1.8267269089620000e+00
40 -2.5476461572329998e+00 3.0491782376750001e+00 5.0889080524369996e+00
41 4.7994217389499996e+00 -6.1224472793229996e+00 1.8492181174050000e+00
42 5.4983753941150004e+00 -1.4810919306770001e-01 -1.0028113957710001e+00
43 2.7737376611790001e+00 4.1406331306209999e-02 1.8163645068480001e+00
44 -1.1116866071760001e+00 1.2296794991640001e+01 -5.5972473529559998e+00
45 1.7109371742560000e+00 -3.9994731555629999e+00 3.6293644333569999e+00
46 5.9284028021010000e+00 3.1023474118230001e+00 2.5903556284240001e+00
47 -7.7758603063049998e+00 -2.7113942038520000e+00 -1.8015003454510001e-01
48 3.1324058389199999e-01 -2.6309537658120000e-02 2.1188313447189999e-01
49 -5.7673565442079999e+00 4.4148960409629998e+00 6.0173896673370004e+00
50 -4.4418673838100000e+00 -3.7386873906800000e+00 -1.5179401603230001e+00
51 -9.3954458549730002e-01 -3.3286444313070002e-01 -4.8531958055509999e-02
52 -8.6966786382919992e+00 2.3244966352869998e+00 -2.7509799578859999e+00
53 8.0681675668099995e-01 2.2832529489179998e+00 6.1644199939580000e+00
54 6.7508077268070004e+00 5.6080038029229995e-01 -6.3736267390919998e+00
55 7.6145879232480000e+00 5.3360941333460001e+00 -7.3779009523979999e+00
56 1.0313186962850001e+01 4.7565054081099998e+00 -8.5089550522170008e+00
57 -6.9734077843669995e-01 3.9691651315700001e+00 -2.7485084971570002e+00
58 -8.3089734131780002e+00 -3.5218942272680001e+00 -1.4784817285120000e-01
59 -3.6683306797639998e+00 3.4355567342250000e+00 -7.6448926564230000e+00
60 -7.3358296428800003e+00 1.7166471659349999e-01 7.6382166061780001e+00
61 3.4303405532900000e-01 5.7924939822079997e+00 5.6866364096989996e-01
62 3.9763402626800000e+00 2.2511525517119999e+00 2.3909949789549998e+00
63 3.1535688866979998e+00 -1.9448509658230000e+00 -4.0618416420320003e+00
64 -1.5479929485580000e+00 6.8301782873240002e-01 2.0765963506550000e+00
65 -4.3740047510959998e+00 -4.0374639814269999e+00 2.5840998926259999e+00
66 -2.9180193602900002e+00 7.5899105451030002e-01 5.2834264413350001e+00
67 -6.7537099121080002e-01 5.3445706277129998e+00 3.3592950249390001e+00
68 -1.6985434164210000e+00 -1.5294150547609999e+00 1.5804822010840001e+00
69 3.6398109990799998e+00 -2.2082272175559998e+00 -1.1273117792030000e+01
70 4.2440159465749998e+00 -1.1061240673299999e+00 -5.4272933834170001e+00
71 -8.0928098629750007e+00 4.6878733167320004e+00 8.1844650759059991e+00
72 1.0436177704020000e+00 8.6505209065230009e+00 6.2717758137280000e-01
73 5.5309387456990000e-01 -1.8288760221700000e+00 -6.6307646059660001e+00
74 -3.8395834097420001e-01 2.3364472438180002e+00 3.2603859463770002e+00
75 -5.9845013271530001e-01 -3.4760749842069999e-01 -6.6901787521480003e+00
76 2.2848320346050000e+00 -7.0257558597170000e+00 2.3559162542080001e+00
77 -4.8726459713020001e+00 -1.4124936789830000e+00 -7.3678798860660000e-01
78 7.8391185265200003e-01 1.5512465298360001e+00 1.4102516139370000e+00
79 -7.2627845476369997e+00 -3.8898402437430000e+00 3.8798989112040001e+00
80 -1.6080397684950001e+00 -1.8358163947970001e+00 1.6868662934130001e+00
81 3.7775203323870001e+00 3.6506297167640001e+00 2.7282315757459998e+00
82 6.6502887979269998e-01 -2.9322350286300001e+00 -3.7047336032649998e+00
83 -6.9315808233389999e+00 -5.6169998062430002e+00 -4.9130736564999999e+00
84 -3.3099607362730001e+00 -1.8724160319630001e+00 -2.5061518983790001e+00
85 -9.0577972632000003e-01 -1.9414286394950000e+00 -3.8394178381259998e+00
86 8.8503047517569999e-01 -6.6021317767259999e+00 3.0353890782380000e+00
87 1.0117099464550000e-01 -5.7261847454610004e+00 -5.3328849694510005e-01
88 -1.8261191374229999e+00 -2.5133735564389998e+00 -5.8080798209719999e+00
89 6.2523806953070000e+00 -7.0576978928930001e-01 -3.4322156209990001e-01
90 -1.9048849000690000e+00 -1.0575314765940000e+00 9.3202491664950005e-01
91 1.4551594356069999e+00 5.7584339628320000e+00 -2.5812975756799998e+00
92 5.5126754305049996e-01 -3.5235223980570001e+00 -4.8566744229080001e+00
93 -5.8163733579050003e+00 -5.1882280403319996e+00 -3.9879440269849997e-01
94 -3.9259441117280001e+00 1.5129167209879999e+00 -4.8869240042269997e+00
95 -4.2303876878900004e+00 -2.8761441307190001e+00 2.5975887764690002e+00
96 4.0483225548560000e+00 5.1500095762329998e+00 -1.7145903759000001e+00
97 1.8850254965790001e+00 -3.7497806802520000e+00 -3.2470922215050000e+00
98 -3.4033632037540000e+00 -4.4318149524610000e+00 -5.9477544413720000e+00
99 -3.4222970614879999e+00 -5.9744160491249998e+00 -7.7546011015860001e+00
100 9.8247071188220003e-01 2.1604326715169999e+00 -5.3687658113590002e+00
101 -2.6621174838470001e+00 -1.4474130322059999e+00 6.8574290908790003e-01
102 -4.4390193564120004e+00 2.9631252734409999e+00 -4.3110579369239996e+00
103 3.8602851777520000e+00 4.9654941803529997e+00 4.5197651401360002e+00
104 -3.2341163719930002e+00 -8.5813323127319996e-01 5.9177370340079998e+00
105 -5.4537441051869997e-03 -3.0125708673870002e+00 2.9513220371210003e-01
106 -1.1687012485560000e+00 -2.6636299829249999e+00 -2.9054353262660002e+00
107 -5.8106251524330004e+00 1.4873865432870001e-01 -5.5517445997649995e-01
108 -1.4757037150020000e+00 -1.3006617865390000e+00 1.2704608731639999e+00
109 3.6223869330029999e+00 5.8322200278800000e+00 -1.4870907812720000e+00
110 -8.2091719901660004e-02 1.7278629088999999e+00 -2.1720800608060000e+00
111 -1.1920889524430001e+00 -1.8847549370770000e+00 2.6131941793100000e-01
112 -1.1508937457200000e+01 -6.7024064902019997e+00 -4.0603746243450001e+00
113 1.4838993459330001e+00 5.0446952149430002e+00 -8.7982028669610006e+00
114 5.1056358553400001e+00 -1.0432158089240000e+00 9.0846163172219996e-01
115 -3.5105058509729998e+00 -1.5046359237239999e+00 7.4980968415479996e+00
116 -8.2671680440939999e-01 2.7881320967679999e+00 7.4369128533990003e-01
117 2.2259300015800001e+00 -3.2646459357789999e+00 3.7622941154450000e+00
118 2.8944770356879999e+00 -3.4912089284599999e+00 -8.5821381692950005e-01
119 1.2483499096210000e+00 5.2031212981430004e+00 2.0186085590029998e+00
120 -2.2546609604149999e+00 -2.9586985485980000e+00 -2.2528676576620001e+00
121 -3.7558808008590000e-01 2.6414567207499999e+00 -9.8093578825289995e+00
122 4.2275027031160001e-01 -1.8553500456759999e+00 -1.6275960927280000e+00
123 -1.5149859789419999e+00 -1.8286320535500000e+00 1.0592891397890000e-01
124 4.6630664332939997e-01 2.9756956190500001e+00 2.2322624062330001e+00
125 3.3091488338430000e+00 4.5790064742820000e+00 -2.0628851339100001e+00
126 5.2774189253920003e+00 -6.3362334016960000e+00 1.0010202016939999e+01
127 -6.6954939912059999e+00 6.0634813160550003e+00 -2.3471078619940000e+00
128 2.5592291931000002e+00 8.2189394440969998e+00 -8.4624170353829999e+00
129 -4.5496493609049997e+00 2.5974789433050000e-01 -3.5205152589919999e+00
130 -3.1335024531350002e+00 4.5986651987190003e-01 3.0518678340570000e+00
131 1.4906469220259999e+00 3.2283285568900002e+00 3.8256673651640001e+00
132 5.4490992757130003e+00 -1.5530739876590001e+00 4.5574764430229999e+00
133 2.3402578533609999e+00 -1.2469387856660000e-01 -1.4350224980199999e+00
134 1.2580264519860000e+01 3.8226570753410001e+00 -4.8724707923389996e+00
135 -1.1209848418560000e+01 -8.8406259082710008e+00 -2.3154726973539999e-01
136 2.5681438311039999e+00 -3.6656107182160000e+00 -1.3746945783410001e+00
137 -1.7510570700999999e+00 -2.6193655446349999e+00 7.6210821220370004e+00
138 5.0824992111530003e+00 -1.3310211674360000e+00 2.7756647760180000e+00
139 -6.7636309304579996e+00 -1.6928517440249999e+00 -2.5762181438140002e+00
140 1.2212019085860000e+00 3.4099769261550001e+00 -2.9533502354610000e+00
141 1.7580034787020000e+00 -9.0380127304729996e+00 1.6850916264669999e+00
142 -5.8500798436080004e+00 -4.8521618165360003e+00 -1.5963617069900000e+00
143 4.3149481912700001e+00 1.3319690409420000e+00 -3.3964718188020000e+00
144 -7.4329037962250000e-01 1.1198594498429999e+00 3.2830090434749999e+00
145 8.9208654297760006e+00 -2.2613639766530000e+00 -4.1006031677359998e+00
146 3.6323800163629998e+00 4.2276715690400000e+00 1.1144057813800000e+01
147 -1.1441582936850001e+01 -5.1116750127439996e+00 3.9054960503550000e+00
148 4.2040029728570003e+00 5.7286212518839996e-01 6.7608756680940001e+00
149 2.3535059921540000e+00 -3.5817375458190002e+00 -3.1639800508590001e+00
150 -2.3735939646390000e-01 -4.6892848604550003e-01 4.1193326017830001e-01
151 5.9710331368240004e+00 -3.1047733721480002e+00 -1.1690376027180001e+00
152 -2.7249157211199999e+00 8.2987764083920001e-01 1.5733139924520001e-01
153 3.1088257230740002e+00 5.5472761063469997e+00 -3.5062863524729999e+00
154 -3.6607726918469998e+00 -1.9389291702089999e+00 2.3522413184030002e+00
155 5.0588430662109998e+00 -1.1763515170500001e+00 1.4604925930099999e+00
156 4.9347429958709998e+00 5.9305401246790002e+00 2.5019053011939998e+00
157 1.5996689350050000e+00 -7.1461126819739995e-01 -1.0702712916850000e+01
158 6.2489321505559996e+00 -2.0361048269170001e+00 -5.8878099359400000e+00
159 5.5004131341860001e+00 1.0407184864000000e+01 -1.2949553061229999e+00
160 5.4921044727270001e+00 4.5193470981830002e+00 -2.6420852582920000e+00
161 1.9537676824060000e+00 2.4694376071900002e+00 5.2663264221199997e+00
162 -5.1678206794610002e+00 -5.6448505456460003e+00 -1.7654847101850000e+00
163 -5.5040508186080004e+00 3.1357809977979998e+00 -2.6634140753810001e+00
164 -1.9680896515849999e-01 -3.6398739413910000e+00 2.1821610578030000e+00
165 1.1732604692730000e+00 -4.6618249372160001e+00 9.6115050921529999e-02
166 2.6663529195550000e+00 -3.2325790322889998e+00 9.3432721058870002e-02
167 5.0241117966950000e-01 -1.5268194654530001e+00 2.2543644122059998e+00
168 -6.1761217704410001e+00 1.3552971619040000e+00 3.2446125306770002e-01
169 2.3857662547430000e-01 -2.9107587038879998e+00 5.9530230670210005e-01
170 3.0125073826160000e+00 4.7706857882789997e+00 -3.5534364050709999e+00
171 1.9839159826290000e+00 -2.1368086927280001e+00 1.2410139668560001e+00
172 1.2305656833830001e+00 4.3549353112169999e+00 -1.8267508965879999e+00
173 4.1524932757149999e+00 1.6434598577490001e+00 5.6323533695329999e+00
174 -3.4888502822710001e+00 3.1087720556899998e+00 -2.0206000778259998e+00
175 6.3985910594890005e-01 9.4692234377189999e-01 -2.7291098644870000e+00
176 -2.5267654539100000e+00 5.0400671219759996e+00 8.3064136106779998e+00
177 -7.0060876198189996e+00 -2.7496214977990001e+00 4.9659762045909996e+00
178 4.9502339998479998e+00 -1.7532014801900000e+00 -9.9434805806469999e+00
179 2.9304674585139998e+00 -3.7141105922210000e+00 3.0015196729770000e+00
180 -3.1814702041150000e+00 8.3270990831529996e+00 -7.2317703754810003e-01
181 -7.9162792856310000e+00 3.9284694169990000e+00 -4.3501436885080000e+00
182 1.7052151543030001e+00 6.2242244406970002e+00 3.9057667760319998e+00
183 -5.5000057047170001e+00 -4.8658334873360003e+00 2.0078473577680001e+00
184 3.2230437951900002e+00 4.6765422509460004e+00 1.8007570755680000e+00
185 1.1686770943000000e+00 -6.2951220143940001e-01 -3.0684743630070002e+00
186 -3.5085569712860001e+00 -4.6149489764279998e+00 1.8503894472580000e+00
187 5.7441175911179998e-01 5.8668572541169999e+00 2.5645542199009999e+00
188 1.4420973118010001e+00 8.8940207329429999e-01 6.2521854175430001e+00
189 -2.6110297854179998e+00 -3.4611337015749999e-01 5.0622632693630001e+00
190 3.8894465871659998e+00 5.3680568312050001e+00 7.9005540106320005e-01
191 -4.2296339468279998e+00 1.7157056179560000e+00 2.9545653436600001e+00
192 -2.0262249706620000e-01 -3.4042300597959998e+00 2.6118427862979998e+00
