LAMMPS data file extracted from NVT dump, timestep 1940000, units metal

192 atoms
2 atom types

0.0000000000000000e+00 1.6195563468200000e+01 xlo xhi
0.0000000000000000e+00 1.6195563468200000e+01 ylo yhi
0.0000000000000000e+00 1.6195563468200000e+01 zlo zhi

Masses

1 12.00000000
2 16.00000000

Atoms # atomic

1 1 1.0593592845200000e+01 1.4704512593370000e+01 6.9596625914440002e+00
2 1 4.3476520480499996e+00 1.4291575975490000e+01 -3.5903459301980001e-01
3 1 7.0908490626110003e+00 1.2862311601609999e+01 7.4938266952490000e+00
4 1 6.6971064683210004e+00 3.4719681612920001e+00 2.7394672873560002e+00
5 1 4.9421512743139999e+00 2.7828308472930002e-01 4.4293561780059996e+00
6 1 6.6038663282779997e-01 1.0235093411659999e+01 1.2443800259580000e+01
7 1 1.1296556691710000e+01 1.1382380789800000e+00 1.1915585974200001e+01
8 1 7.5419942266469997e+00 9.5117058407139998e-01 7.4570521625400001e+00
9 1 1.4687946335299999e+01 2.4597389500100002e+00 1.4284244187240001e+01
10 1 5.1403366639390002e+00 1.2434786755390000e+01 1.2475532185090000e+01
11 1 1.8084231687940000e+00 1.4105358996870001e+01 1.0504529377230000e+01
12 1 8.0457686056540005e+00 5.0823017747719996e+00 6.0860856100370002e+00
13 1 4.8212869526270001e+00 4.5742262476809996e+00 1.2820946757290001e+01
14 1 1.7619162593769999e+00 6.4686697037589997e+00 8.9454395679940006e+00
15 1 3.3974526145140000e+00 4.9602145685399996e+00 6.0839105457510003e+00
16 1 3.5635477075350002e+00 2.3092100156080000e+00 3.9441005342190000e-01
17 1 9.2026210882920001e+00 5.2678281774149998e+00 9.8256683712609991e+00
18 1 1.3572047834959999e+01 2.8874122513950001e-01 3.7683885726259998e+00
19 1 7.7610120614720000e+00 1.2494906910239999e+01 3.1522435093970000e+00
20 1 1.0371253634880000e+00 1.1200279159570000e+01 1.5348862637680001e+00
21 1 1.1060207423430001e+01 1.9785441956109999e+00 1.4827433878599999e-01
22 1 9.9038593684009992e+00 9.3432991614350005e+00 9.7592349583529998e+00
23 1 1.3336981362450000e+01 4.4366547086579997e+00 9.0201551254889996e+00
24 1 3.5243537022360001e+00 1.0814203664470000e+01 9.4770180451399995e+00
25 1 1.3877883426420000e+01 1.3919119140930000e+01 1.0566645681110000e+01
26 1 1.0546940683449999e+00 1.4288890915360000e+01 3.6930286771629999e+00
27 1 1.5171335285260000e+01 7.4937998804700001e+00 1.5399595591450000e+01
28 1 3.9401116138519998e+00 1.0116055339390000e+01 1.5904133618590000e+01
29 1 9.8841463633629996e+00 1.3680370571019999e+01 1.5610321130770000e+01
30 1 1.1519659586200000e+00 1.3760061458559999e+01 1.4358290436880001e+01
31 1 1.4198217207740001e+01 6.8462648526400001e+00 3.8801709255260000e+00
32 1 6.9158966990630000e-01 8.5497947993950003e+00 5.2551173932359996e+00
33 1 1.3036091642420001e+01 1.0139060986580001e+01 4.0873909725940001e+00
34 1 9.0990624624910001e+00 4.1361839372490000e-01 3.7284139555400002e+00
35 1 1.4000880681200000e+01 1.4990282800479999e+01 1.6039632642910000e+01
36 1 1.3238208468500000e+01 1.1536369125049999e+01 1.5431287712920000e+01
37 1 7.2553205303860002e+00 1.8726289135180001e+00 1.2868061979209999e+01
38 1 1.0822628089789999e+01 1.2116690754140000e+01 1.2515084851219999e+01
39 1 1.2293649034990001e+01 8.5125309487959999e+00 1.2505259938109999e+01
40 1 2.1356163096569998e+00 4.0819236778610002e-01 7.5890980065400004e+00
41 1 1.4423488406770000e+01 9.1604416645410005e+00 8.3862553376260003e+00
42 1 1.1367643431119999e+01 6.7530528895120003e+00 3.3213036668340001e-01
43 1 1.1222872384010000e+01 3.6189128330060001e+00 5.6139258969170003e+00
44 1 1.2386274961940000e+00 5.7319387634819998e+00 2.3091181061319999e+00
45 1 3.2377256075120000e+00 6.8640879370120000e+00 1.4459074776120000e+01
46 1 1.4039768450390000e+01 3.6947112963589999e+00 2.1389044346680000e+00
47 1 4.5064255717680002e+00 1.1793946697879999e+01 3.6228321887960000e+00
48 1 1.5738427315630000e+01 6.5361766461170001e+00 1.1955896978209999e+01
49 1 4.9923235570350002e+00 3.7606982858269999e+00 9.0414668759470000e+00
50 1 9.7420413050380006e+00 9.5482722088650007e+00 6.1434930896750002e+00
51 1 9.8036441829409995e+00 3.9169159669379998e+00 1.3852422199290000e+01
52 1 1.4717591571760000e+01 1.1343149797750001e+00 7.9696941398660002e+00
53 1 5.6013291611670004e+00 7.5279477845080001e+00 7.7081691329520003e+00
54 1 1.4914704948070000e+01 1.3335778786160001e+01 7.1077988943520003e+00
55 1 8.7620010846260001e+00 1.4546186172240001e+01 1.0432573008809999e+01
56 1 8.2027704577579996e+00 1.0739360488670000e+01 1.5548614465100000e+01
57 1 5.7935285910400003e+00 6.4077905369919996e+00 5.1731377204179996e-01
58 1 3.4064130029410000e-01 3.1166851490120000e+00 5.0489286957769997e+00
59 1 8.7917539603280004e-01 1.9483512980200000e+00 1.1089850533160000e+01
60 1 4.9567605703890001e+00 1.5626932779930000e+01 9.9741919922209998e+00
61 1 7.9642762254359996e+00 7.4730336923819998e+00 1.3673078791169999e+01
62 1 5.7631191806580002e+00 7.6723514883139998e+00 3.9568751769530000e+00
63 1 7.3092076091190004e+00 5.9107956226470004e-01 6.1415346442030005e-01
64 1 4.3125174770200001e+00 7.0670967567140002e+00 1.1208786770530001e+01
65 2 1.0806479882600000e+01 1.5746797311700000e+01 7.4814388619059997e+00
66 2 1.0345722700680000e+01 1.3817581797950000e+01 6.2104816180749998e+00
67 2 3.9235843577440002e+00 1.3337626772009999e+01 1.1963069771520000e-01
68 2 4.9876741235230000e+00 1.5197597937350000e+01 1.5455962801429999e+01
69 2 8.2180257402199999e+00 1.3219386316570001e+01 7.5931972828949998e+00
70 2 5.9765267198489997e+00 1.2440131280190000e+01 7.4982016220630001e+00
71 2 5.5865808806430000e+00 3.2095028971219999e+00 3.0363447441520002e+00
72 2 7.8451225053079998e+00 3.5916654992139998e+00 2.5318805246589999e+00
73 2 4.9696180288110003e+00 1.3364362130400000e+00 4.9499843516860000e+00
74 2 5.0189296705349999e+00 1.5498482759950001e+01 3.7595562415030002e+00
75 2 5.6873673478940001e-01 9.3576256348019999e+00 1.3190893868200000e+01
76 2 7.4677332165139998e-01 1.0988473709830000e+01 1.1543933614600000e+01
77 2 1.1240609000059999e+01 2.0007213040590002e+00 1.1086978424630001e+01
78 2 1.1313177147610000e+01 2.9351977525610001e-01 1.2733604283949999e+01
79 2 8.0444536010010008e+00 1.8702162529610000e+00 7.9578572808869996e+00
80 2 7.1329766291750003e+00 1.6111905805580001e+01 6.9757404148779996e+00
81 2 1.4443546186670000e+01 3.1419813535599999e+00 1.3378611228890000e+01
82 2 1.5006817183860001e+01 1.8048785658800000e+00 1.5230551303230000e+01
83 2 5.7722981945039997e+00 1.2769443467540000e+01 1.1546463996669999e+01
84 2 4.4107321285990002e+00 1.2057500036140000e+01 1.3304202538480000e+01
85 2 2.3841908447700000e+00 1.4888992615199999e+01 1.1114747436740000e+01
86 2 1.1829841093580000e+00 1.3314314360339999e+01 9.9148372363800004e+00
87 2 7.0240786428859998e+00 4.4898322350340001e+00 6.2098660676780000e+00
88 2 9.0995068344090004e+00 5.6783067584199998e+00 6.0226980219239996e+00
89 2 3.8068439867890000e+00 4.0356033941840002e+00 1.2598782514700000e+01
90 2 5.8575443424809999e+00 5.1319782739999997e+00 1.2974128929680001e+01
91 2 1.5779594276090001e+00 5.3347288882120001e+00 8.9295461644440000e+00
92 2 1.9230768849060000e+00 7.6361678261980002e+00 8.9626801192399999e+00
93 2 3.2888932927140000e+00 3.9086754856939998e+00 6.6048942651619997e+00
94 2 3.5570801997710002e+00 6.0409142213650000e+00 5.6301064288860001e+00
95 2 3.5739085284019998e+00 3.0379654087180001e+00 1.5639494602110000e+01
96 2 3.5338903062150000e+00 1.7212464335130000e+00 1.3875934115930000e+00
97 2 9.1043375010329992e+00 6.3543026452719999e+00 1.0252019159490001e+01
98 2 9.2547834150810004e+00 4.1918355658959996e+00 9.3604302084289994e+00
99 2 1.3658897068110001e+01 1.5946739413470000e+01 2.7513890921980000e+00
100 2 1.3507404097229999e+01 8.2640603392769996e-01 4.8300562604869999e+00
101 2 7.3592474330449997e+00 1.1708292169210001e+01 2.3922148532329999e+00
102 2 8.0912683852839997e+00 1.3280254614600000e+01 3.9456118153139998e+00
103 2 1.2274729900429999e+00 1.2278028710639999e+01 1.0584871903819999e+00
104 2 7.4551391539739997e-01 1.0087091766060000e+01 1.8573204371680001e+00
105 2 1.0299394954949999e+01 1.2627897254039999e+00 6.1121189053439995e-01
106 2 1.1808132998370001e+01 2.7795686984730001e+00 1.5945011497139999e+01
107 2 1.0226368989519999e+01 8.8285066593729997e+00 8.7450949618130007e+00
108 2 9.6180173646739995e+00 9.7689030341330003e+00 1.0805098316890000e+01
109 2 1.2896351982980001e+01 3.4200564048810000e+00 8.6599280823859992e+00
110 2 1.3859125066380001e+01 5.4006762349370003e+00 9.4217197302490003e+00
111 2 3.4841415460870002e+00 1.0873382521580000e+01 8.2831357115080007e+00
112 2 3.5756568228369998e+00 1.0697394789690000e+01 1.0671236903100001e+01
113 2 1.4630012451690000e+01 1.3409478656950000e+01 1.1300130399600000e+01
114 2 1.3030225891410000e+01 1.4491233872010000e+01 9.9184075296769993e+00
115 2 1.6088055863099999e+01 1.4311496363690001e+01 3.8522923049440001e+00
116 2 2.2196410678550000e+00 1.4199326351210001e+01 3.4638781767240001e+00
117 2 1.5451874582120000e+01 8.5453256084909999e+00 1.5772033926620001e+01
118 2 1.4774688435830001e+01 6.4318376445230001e+00 1.5066853907850000e+01
119 2 2.9099036199100001e+00 1.0397344167040000e+01 1.5467361982060000e+01
120 2 4.9955044214509998e+00 9.7570228169300002e+00 1.6551393668410000e-01
121 2 9.4650529906970000e+00 1.4408420491979999e+01 1.4742004886469999e+01
122 2 1.0247089329920000e+01 1.2891896698829999e+01 2.2467493496700000e-01
123 2 1.7139972333260001e+00 1.4769105727379999e+01 1.4545259771160000e+01
124 2 4.4123279521300002e-01 1.2828332343870001e+01 1.4257786875220001e+01
125 2 1.4757181283530000e+01 6.5779917724530002e+00 2.8975216546699998e+00
126 2 1.3609181856270000e+01 7.1364198350260004e+00 4.8660114093809996e+00
127 2 7.6074411325140001e-01 9.6246723032489996e+00 4.8127771101920001e+00
128 2 7.7883836737199996e-01 7.5014062720370003e+00 5.7712722128890004e+00
129 2 1.2461705338220000e+01 9.5382833173599995e+00 3.2384740113240000e+00
130 2 1.3572059116960000e+01 1.0723595591490000e+01 4.9271390019480004e+00
131 2 1.0239247108420001e+01 3.4896264291470003e-01 3.4545055555010000e+00
132 2 7.9751801286469997e+00 5.2665166914109995e-01 4.0217229575519999e+00
133 2 1.5133444302059999e+01 1.5098170872220001e+01 9.6010306158630002e-02
134 2 1.2868904746769999e+01 1.4888841076869999e+01 1.5813826046220001e+01
135 2 1.2987503767810001e+01 1.1877262486630000e+01 1.4324521130170000e+01
136 2 1.3461319710520000e+01 1.1339989366690000e+01 3.7317382969480001e-01
137 2 7.1431618281570000e+00 2.8023140478180002e+00 1.2186337691889999e+01
138 2 7.2883008499180004e+00 9.2527896150180000e-01 1.3546754146740000e+01
139 2 1.0087691117900000e+01 1.1680920031099999e+01 1.3337546560570001e+01
140 2 1.1660804092750000e+01 1.2437576359840000e+01 1.1757084843330000e+01
141 2 1.1972244043450001e+01 7.5074406206809998e+00 1.3056196799200000e+01
142 2 1.2532123172560000e+01 9.5202412217100001e+00 1.1912800250720000e+01
143 2 2.0395611757409999e+00 1.3393946844619999e+00 8.3699288357599997e+00
144 2 2.2684630239580001e+00 1.5776672291690000e+01 6.7697864514460004e+00
145 2 1.3712118088230000e+01 8.5089280663700002e+00 7.7533959320149997e+00
146 2 1.5260080803750000e+01 9.7967551648499995e+00 8.8657796220630001e+00
147 2 1.1120479053240000e+01 5.6018323422130001e+00 1.6541019098810001e+01
148 2 1.1631337777620001e+01 7.8912397905920004e+00 3.6803895156639999e-01
149 2 1.2074953563999999e+01 4.4115734714040000e+00 5.6807436442370003e+00
150 2 1.0336341751260001e+01 2.8463940583839999e+00 5.5674320557790002e+00
151 2 1.8807699142809999e+00 5.3380750069750000e+00 3.2558658128909999e+00
152 2 7.3971515354160000e-01 6.1505978579310003e+00 1.3175339963199999e+00
153 2 4.2224808243889997e+00 7.4933585243929999e+00 1.4551535388790001e+01
154 2 2.1859424179859999e+00 6.3772118768980004e+00 1.4314471778570001e+01
155 2 1.3029154762250000e+01 4.1058245424419999e+00 2.6160288110379999e+00
156 2 1.5068734396090001e+01 3.2989190666730002e+00 1.7247959346620001e+00
157 2 5.1447670962669996e+00 1.2729812869440000e+01 3.9427472636509999e+00
158 2 3.8840832946830002e+00 1.0926056967639999e+01 3.2367038416770000e+00
159 2 4.5501740060070001e-01 5.8231914831560001e+00 1.2176354090780000e+01
160 2 1.4879057047010001e+01 7.3243425540880001e+00 1.1680694269449999e+01
161 2 4.8818599508069997e+00 2.7025095825299998e+00 9.5611361195360001e+00
162 2 5.1314671430910002e+00 4.7993873307649997e+00 8.5944049000669995e+00
163 2 1.0777541989260000e+01 9.0684642625310001e+00 5.9669643634670004e+00
164 2 8.6989714557970004e+00 1.0064229860139999e+01 6.2363567918899996e+00
165 2 1.0509941618119999e+01 4.2309247482450001e+00 1.2957284279710001e+01
166 2 9.0958401127619997e+00 3.4417135389019999e+00 1.4687481077499999e+01
167 2 1.5470835406579999e+01 1.8555971416140000e+00 7.4504926116750001e+00
168 2 1.4019366557590001e+01 4.3977081932840001e-01 8.5957098412009998e+00
169 2 6.6951226706320002e+00 7.0894151517099999e+00 7.5335706598370002e+00
170 2 4.5003519361000004e+00 7.7202663080180001e+00 8.0254559401879995e+00
171 2 1.5051955125750000e+01 1.2349680443920001e+01 7.6793814344179996e+00
172 2 1.4551922975500000e+01 1.4340130276780000e+01 6.5965329547050002e+00
173 2 9.1958626893840005e+00 1.3479181203100000e+01 1.0682318391930000e+01
174 2 8.4074130335189992e+00 1.5641035014870001e+01 1.0207747314300001e+01
175 2 8.7731464685299994e+00 9.7860621700900001e+00 1.5834038584010001e+01
176 2 7.5795332352890004e+00 1.1657412117930001e+01 1.5229832626560000e+01
177 2 4.8707569709890004e+00 5.7408992901860003e+00 8.4380949727720000e-01
178 2 6.8023630560640003e+00 6.9630470813359997e+00 3.2796194435490000e-01
179 2 1.5523184510260000e+01 3.7528904158600001e+00 4.8891270547480001e+00
180 2 1.3027141998939999e+00 2.4704279218109999e+00 5.3574696711329999e+00
181 2 2.9569385807540001e-03 1.1855221028790000e+00 1.1341033739769999e+01
182 2 1.8095072830950001e+00 2.6637227747850001e+00 1.0856819940450000e+01
183 2 5.3868602966549997e+00 1.5874485630210000e+01 1.1033898411090000e+01
184 2 4.4411902586130001e+00 1.5299116714120000e+01 8.9659580434980004e+00
185 2 7.0551467985179999e+00 8.1619336900030000e+00 1.3385385512359999e+01
186 2 8.7666525642409994e+00 6.6836649243970001e+00 1.3894633287960000e+01
187 2 5.1495142778999998e+00 8.4209502433590000e+00 4.6375308357509999e+00
188 2 6.4146393541920004e+00 6.9471961272470004e+00 3.3088066529089999e+00
189 2 7.6347018609559996e+00 1.5789554057309999e+01 1.1409464187750000e+00
190 2 6.9395046268460003e+00 1.6635259400489999e+00 2.3904989763130000e-01
191 2 3.3989540261440001e+00 6.6218855833459997e+00 1.1798673262119999e+01
192 2 5.2799398203210002e+00 7.5191997868509999e+00 1.0716725742310000e+01

Velocities

1 -4.8559201292929997e+00 -1.8641399182550000e+00 -2.8328817897840000e+00
2 1.5082529803019999e+00 -1.0234288812560000e+00 -1.0223530093910000e+01
3 1.1241597043230001e-01 8.0780277731840000e-01 8.6292884708849993e+00
4 -1.2836072541250001e+00 4.6007487825039997e+00 2.2206534720339999e+00
5 5.2345429704060003e+00 -4.3984993107330004e+00 1.4632138543400000e+00
6 3.8285652061250000e+00 -2.5333289380810000e+00 -5.5741070923139997e+00
7 1.7191952315950001e+00 -3.9148560388410001e+00 -3.2975076131310002e+00
8 5.0500134135560000e+00 1.9203943098239999e+00 -5.8735596174509999e+00
9 1.2182778728179999e+00 -1.9555396214180001e+00 7.2290716160580004e+00
10 4.9578493247309998e+00 -8.0818847892000001e+00 3.1231748197170002e+00
11 -1.6787382004219999e+00 5.2588060332609998e-01 -4.6461575462919997e+00
12 9.1729683997020004e+00 -2.2489679902319999e+00 -9.2155864835999992e+00
13 1.9190146583890000e-01 6.7604860676450000e+00 -4.4058135081980003e+00
14 -5.1352455590580004e-01 1.3938872287060001e+01 -1.7253670484340000e+00
15 -2.5683401421430002e-01 8.2482894915120006e+00 1.7954495668099999e+00
16 -6.0612802163139996e+00 6.0949155659440004e+00 3.4064322245450002e-01
17 3.5673287686880002e+00 7.7356717799499999e-02 2.8414461762259999e+00
18 5.5299475792619998e-02 -2.5899964880530000e+00 6.7966092866189998e+00
19 1.0594619848260001e+00 -9.6022701204899992e+00 6.3641092772599999e+00
20 -4.9060851514300001e+00 -2.0716570481379999e+00 -6.0839102049190004e+00
21 1.4112911184000001e+00 -3.4007745489489999e-01 6.4225286900130003e+00
22 -1.5286944909150000e+00 8.0116266456850005e-01 -1.4240032064840000e+00
23 6.1091515294040004e+00 2.8998147804559999e+00 9.7693405895370002e+00
24 -8.5643697916210009e+00 -2.3563534270509998e+00 2.6155748593400001e+00
25 9.0113442235909993e+00 -4.7749422907090002e+00 1.1290744394150001e+00
26 6.9470296678230004e-01 8.6854048416370002e+00 2.6905624234020000e+00
27 -5.0279173896380003e-01 3.0990711626070002e+00 -3.1339874683710001e+00
28 -6.5838432292909999e-01 -7.2926707891440001e+00 -6.0415774677630001e+00
29 -2.9482791972230000e+00 -3.4477839560630001e+00 -6.9905327916619999e+00
30 4.4777840305809997e+00 1.1170964750170000e+01 1.7371007727779999e+00
31 -4.4728472449660002e+00 1.8392458623120000e+00 -1.0596409732350001e+00
32 -5.8101220404509997e+00 -8.5465067626300009e+00 8.5245905346649997e-01
33 3.2674370294980002e+00 5.8559354999490001e+00 -1.7872767865120001e+00
34 -2.1962332091910000e+00 -2.3278208534160001e+00 3.6795463157540000e+00
35 -1.0777979224990000e+00 -6.4713659496479998e+00 -1.4579665784010001e+00
36 5.4289383889160003e+00 -1.9137458690410001e+00 9.4076129850500001e-01
37 -9.3873593431850004e+00 -9.2281767847249991e+00 -2.3580380281419999e+00
38 4.2581517305860004e+00 9.1755837763299999e-02 2.6499636791049999e+00
39 5.6957644377549999e+00 -8.4210031904740001e-01 1.0472132183759999e+00
40 1.3565229964520000e+01 -5.5888766183040000e+00 -1.4135993889470000e+00
41 -3.0213979952390000e+00 6.8786931488509995e-01 2.5093727891899997e-01
42 -6.2360898662909996e+00 -1.9413412722540000e+00 -3.4968923116680002e+00
43 -2.2470034088649999e+00 -2.0457788397390000e+00 -7.3263919694360000e+00
44 -1.8401521825489999e+00 -1.7475270428000000e+00 3.2315926697180002e+00
45 3.1823604550410001e+00 -5.7981596863540004e+00 1.8415513933740000e+00
46 6.9737668937360002e+00 -4.8030175874229997e+00 -2.0733367247490002e+00
47 6.0292073638100003e+00 6.8970282421969999e+00 -9.4321775161160009e+00
48 -6.9502963259810002e-01 -4.1174145208919999e+00 -6.3754766778879999e+00
49 -1.0073539352059999e+01 -5.4979852682930002e+00 -4.0928945185850001e+00
50 -3.5212366179740000e+00 -1.9703621783630001e+00 3.4745358885090001e+00
51 8.1469447452219992e+00 -9.1120245418800005e-01 -9.4188535863429994e+00
52 -6.7418958286870003e+00 -6.0356089473359997e+00 5.3918952677569996e+00
53 -7.3614263379680001e+00 -6.8125595384600002e-01 -6.7219802394040000e+00
54 -8.4171329425319996e-01 -1.6857575204449999e+00 3.8015473708140002e+00
55 -2.6437701300269998e+00 -2.0629327761399998e+00 -8.3125429643839996e-02
56 -9.7138358979609993e+00 1.5403104377110000e+00 -1.6941403968850000e+00
57 3.0151176233190000e+00 4.1382586298890001e-01 -1.4387597212970000e+00
58 8.0552546277719994e+00 -1.7999913197230000e+00 3.5365837468070001e+00
59 -8.1017322033580008e+00 8.5544569841290006e+00 4.4867124507770004e+00
60 5.5229239264640002e+00 2.3677350321500001e+00 -4.8002355606369997e+00
61 -4.0123398936100001e+00 3.6697673468219998e+00 -5.4122132001669998e+00
62 8.0243042980150003e-01 -1.4468303423310001e+00 -7.7584593904499997e+00
63 1.9945014961250001e+00 1.0650209822590000e+00 2.7889642998299999e+00
64 -6.3243714524639998e+00 3.0744316568870000e+00 5.4544272406959999e+00
65 2.7342373284030002e+00 1.8621589451369999e-01 4.1355477600890000e-01
66 -4.8436455399440002e+00 3.4074797993869999e-03 -5.4922387502639998e+00
67 5.0988390054069999e-01 6.3966730272590002e+00 -1.1177896251449999e+00
68 4.6494945630700002e+00 -7.0505682514629999e+00 -3.1324815618219998e-01
69 5.8349354811529999e+00 1.5680996569160000e+00 2.9831938484279998e+00
70 2.9522681208420001e+00 5.6005430395250002e+00 4.1330552606189999e+00
71 5.7304975734549997e+00 4.3135921202679999e+00 2.3580033000710001e+00
72 7.0912935093830001e+00 1.6978517130390001e+00 -1.7821196270760000e+00
73 2.8381777520410001e+00 -1.8176846377050000e+00 -1.4329582685240001e+00
74 -2.4059998054970002e+00 -1.7086933211040001e+00 -4.4572504848370000e+00
75 3.8079815248650002e+00 -4.7933978075979999e-01 5.9166211255250003e+00
76 -9.8316588611010003e-02 4.9124098915870000e+00 7.5632822934470001e-01
77 -7.0316039459980004e+00 -2.8902677097190002e+00 -4.2484673928829997e+00
78 -3.8854263261900002e-01 2.1420381644940001e+00 2.1643924347290000e-01
79 6.8500611732739998e+00 1.0383964198479999e+01 -3.3596152958349998e+00
80 1.1298692022490000e+00 5.0161422314869997e+00 -9.1798833912489997e-01
81 -6.6485638778369998e+00 -9.9910519448150004e-01 4.6247497918080001e+00
82 -4.5134217686560003e+00 1.6047507830879999e+00 5.8862442763070000e-01
83 7.3386350127840005e-01 1.4285990608270001e+00 2.3964526716869998e+00
84 -5.0207295822039998e-02 4.7870643433520002e+00 8.9517568975269999e+00
85 2.7684596899340002e+00 6.6894148818400001e-01 4.5113743151749999e+00
86 -7.4659983418700004e-01 -1.8653077946679999e+00 9.6845104851279995e-01
87 -4.4734957737269996e+00 4.6893355918399999e+00 1.1777242977900000e+01
88 -6.8282995243419997e-01 2.2371897294499998e+00 -3.6885070448840001e+00
89 -2.9746323827270000e+00 2.2390468620039998e+00 -7.9220224424410002e-01
90 1.3136793798749999e+00 -2.1203348388149998e+00 1.0940425333840000e+01
91 -6.1453122111849998e+00 -3.6618132943320001e+00 1.4936395596300001e+00
92 7.7927570640289998e+00 3.4550958441630000e+00 -3.2914101158219999e+00
93 -6.9755254859750000e+00 5.5817259834910005e-01 7.7626550634350000e-01
94 -2.1612183531430000e+00 -2.9211208296539999e+00 -6.0552113834480004e+00
95 1.9857477591429999e+00 -1.0935567988199999e+00 -2.1236603244070000e+00
96 6.8630715524260000e-01 5.8366458159769996e+00 1.8482808751580000e+00
97 -2.5041092327409999e+00 1.4531913301590000e+00 3.8645284436380001e-01
98 4.9281029298850001e+00 4.0499646980100001e+00 -8.8243058228450000e-01
99 2.9844753309900002e-01 -6.8250959778290002e-02 -4.9729374026890003e+00
100 -3.3049905788250000e+00 2.0765199344009999e+00 2.9052461377949999e+00
101 -5.3194737812119997e-01 -2.4310338842329999e+00 -4.6000980889410004e+00
102 -9.5834523087500001e-01 -4.0418395609650002e+00 -9.7260648771180003e-01
103 -2.2229181285389998e+00 -2.4411189907280000e+00 -6.2427245644470002e+00
104 1.5150218103590001e+00 -1.5804810142129999e+00 -5.3870998260490000e-01
105 -3.0765000467879999e+00 2.4981045504610000e+00 -2.2790758615610001e+00
106 9.8081463633290000e-01 -1.7955451791779999e+00 -1.6810464699929999e+00
107 3.3008256094180000e-01 -3.6892598277730002e+00 1.8821069329310001e+00
108 -1.5027428387970001e+00 -2.9077504101440002e+00 2.9955772941180001e+00
109 -2.3119260465029998e+00 6.7495586483420000e-01 -4.4301629203620001e+00
110 7.2296649841839999e-01 -1.7528309554890000e+00 -4.8257814458329999e+00
111 -2.7226149154249999e+00 2.1765774863509999e+00 8.7004916382990002e-02
112 -2.5158913813080002e+00 -3.9623052127670002e+00 2.8409283242350001e+00
113 4.6950081120289999e+00 4.9278166084489996e+00 -4.3283021131700004e+00
114 2.9752518958310001e+00 5.3774358095609998e-01 3.1568526286759999e+00
115 1.2115571893199999e+00 -7.6048995345430004e-01 4.3362239548880002e+00
116 1.7940680995130001e+00 2.6822539884940002e+00 3.3073735111070000e+00
117 -4.5038144594479999e+00 3.2068602727630000e+00 6.2779189220750000e+00
118 7.9189548517399999e-01 -6.6115355752429998e+00 5.1377286872900001e+00
119 -4.7401765847790001e-01 -9.5872959013129999e-01 -6.0286175154150001e-01
120 2.3657535133760002e+00 4.5070542557220001e+00 4.8830629893769997e+00
121 -2.5171436934760001e+00 4.7381190185469997e+00 1.9261794412450000e+00
122 1.4661731915450000e+00 -1.4540992611610000e+00 3.8057152121110001e+00
123 -1.5182338524590000e+00 9.3664027065069999e-01 6.1480073317039996e-01
124 -4.4553564208900003e+00 -1.3443434594670001e+00 -1.0718785855490001e+00
125 -5.6893458954679996e+00 -2.8258477414519998e+00 2.8225275298139998e+00
126 9.7169914172930005e-01 -1.0429891886689999e+00 1.3806747598610001e+00
127 2.5389923383820001e+00 -2.4043367275269998e+00 1.3640499804980000e+00
128 -7.4873366603139999e+00 -6.5791051781789998e+00 -5.1057596289639999e+00
129 -1.2921312755219999e-01 3.5955597561569999e+00 -2.4568285257230000e+00
130 6.0092856486609998e+00 2.2502503338810000e+00 -4.0259001840380000e+00
131 -1.1497533753680000e+00 -1.8183947839470000e+00 2.0496089002379998e+00
132 -1.5556945818690000e+00 2.8557072957530001e+00 -9.6143542182289998e-01
133 -4.3230398052350000e-01 5.2000031321900000e+00 -1.0136084156439999e+00
134 -6.1491220012180001e+00 1.7233751276489999e+00 5.5693511555530000e+00
135 -2.0107775084739998e+00 2.1095993674950000e+00 -4.1899711837350004e+00
136 -5.4942554869939997e+00 -6.9576089914999999e+00 9.2884873906069998e-01
137 -1.5562878379200000e+00 -4.8335520715920000e-01 -7.1346524383599998e+00
138 -9.4037768127879993e+00 -4.9232573772450001e+00 2.8749007502869999e+00
139 -1.5808622478009999e+00 -2.5422585647309998e-01 -2.2909198428019999e+00
140 2.3990266239140001e+00 4.4018175693229999e-01 4.0605294419150004e+00
141 1.6960634364500000e+00 9.1088352241579995e-01 5.1176594351320004e+00
142 3.8483388469060000e+00 -1.7176853160740000e+00 -5.4907815504359997e-02
143 1.0234600753680001e+00 4.8608424860010002e+00 1.4345662640740000e+00
144 6.4114253228509996e+00 -1.2757033784120000e+00 -5.9917466272619997e+00
145 7.8263909680100001e+00 -1.3037031743680001e+00 2.0663222219069999e+00
146 2.0408979736819999e-01 4.6906401810820002e+00 1.4664686679990000e+00
147 5.3066571882289999e+00 -1.8371832434319999e+00 7.4827391294140000e+00
148 4.7422329818489999e+00 2.1722034331129998e+00 -8.6304841895859996e-01
149 2.1058093368609998e+00 9.3917981807899997e-01 2.0234831255220000e+00
150 4.8104518849379998e+00 -3.1721991923339998e+00 -1.8094170180219999e+00
151 6.1378022106390002e+00 -8.2704228239200006e+00 5.2853624760149998e-01
152 -5.5652380815600004e+00 -5.8190893106899999e+00 2.4095514739690000e+00
153 -4.1216976737310000e+00 -5.8024174183910002e+00 3.0413693362190002e+00
154 3.2100394811299999e+00 3.3409003634699999e+00 9.7219288882229993e+00
155 3.8765135554399999e+00 -1.6633751494280000e+00 -4.7800366130150002e-01
156 -3.3333620252320002e+00 -5.1540070365729995e-01 -5.4401203892350001e+00
157 -7.7862303804129995e-01 6.3008993137060001e+00 -2.4672106457849998e+00
158 2.6519491070729999e+00 5.7772466381380005e-01 4.1524778787100001e+00
159 -4.8327199766630002e+00 -3.5571227694230001e+00 2.4578220204619998e+00
160 1.5361918732190001e+00 -6.2242674919159997e+00 3.1256050738610002e+00
161 7.5940554278669996e+00 -1.6221977081620001e-01 -5.1290175190290004e+00
162 7.2001105406809995e-01 -6.4350384002929994e-01 -5.4841752954230003e+00
163 -5.7304454581369999e+00 -4.4967757227760002e-01 -8.5705047149729996e+00
164 -1.1096658913980000e+00 1.8953558692690000e+00 -3.0394234962620001e+00
165 -5.7845210207460003e+00 -1.7030852125439999e+00 -3.2526728975149999e-01
166 2.3403736115789999e+00 -1.7499313435559999e-01 5.3557175871210001e+00
167 5.2068651421679997e+00 -1.7487533117870000e+00 -3.6067488010409998e+00
168 1.4550903449140001e-01 -9.5379030407359999e-01 7.6169619927280001e+00
169 -5.2846305320700004e+00 -4.3274013034359999e+00 2.9933264767240000e+00
170 1.2130538135000000e+00 1.0360254233149999e+00 -3.4182361712990000e-01
171 -1.7291659620740001e+00 1.3096256078590001e+00 2.0780334092519999e-03
172 -2.9987246549469999e+00 6.2969292708150002e+00 4.9797286936490002e+00
173 -2.8591350692790001e+00 8.0467111592869998e+00 -3.3854877801420002e-01
174 2.1161779831290000e+00 3.7852772913420001e+00 -9.6429309471180003e-01
175 3.1789746238070000e+00 1.9164917403880000e+00 -1.3748718693069999e+00
176 2.3398606207530001e-01 -6.4288571224010005e-01 -3.2941336017339999e+00
177 -2.4002464606289999e+00 -2.3797852887760000e+00 9.4064604978669995e-03
178 3.8707800617369998e+00 5.3013429209640002e+00 2.2241497454039999e-01
179 -2.4243699056980001e+00 -3.8248359992009999e+00 7.2337765373870004e+00
180 -1.3477555280780000e+00 -3.2780979145139999e+00 1.1548728167280000e+00
181 -1.7865496333049999e+00 -4.2189230058930001e+00 -7.4899281264450002e+00
182 -2.4087423782210000e+00 -9.1342501007209997e-01 3.4652601407830002e+00
183 -2.8061533297030001e+00 5.7632825534640002e+00 -6.2530944690029999e+00
184 -1.8093692057999999e-01 -2.5081492710250002e+00 -2.1817091892999998e+00
185 3.9850192116590000e+00 -2.5833590305640000e+00 -2.1239256312169998e+00
186 5.4608427113809999e+00 5.0888056501829997e+00 -1.7048361012110000e+00
187 1.6127854424160000e+00 1.8722650508620000e+00 -4.1763496742669997e+00
188 -3.6367488354150002e+00 -7.9926331795139998e+00 -6.0972366375849996e-01
189 -1.1949001815600000e+00 3.3590510748739999e+00 -3.4813082745510000e+00
190 -2.3162900707750000e+00 -8.5968972366539997e-01 -4.1352198583490001e+00
191 -7.7023544330320004e-01 -6.4750027983140002e-01 1.6162597883640000e+00
192 9.0056291853769999e-01 1.7408166666130001e+00 5.2883465174379998e+00
