LAMMPS data file extracted from NVT dump, timestep 1280000, units metal

192 atoms
2 atom types

0.0000000000000000e+00 1.6195563468200000e+01 xlo xhi
0.0000000000000000e+00 1.6195563468200000e+01 ylo yhi
0.0000000000000000e+00 1.6195563468200000e+01 zlo zhi

Masses

1 12.00000000
2 16.00000000

Atoms # atomic

1 1 1.6026807664860002e+01 1.0585214440030001e+01 1.2705955608800000e+01
2 1 1.0677222468160000e+01 7.6035497228660001e+00 3.6850651650500001e+00
3 1 4.6017168457270001e+00 1.4929603334999999e+01 1.3614206855850000e+01
4 1 1.6074870257510000e+01 1.5988173081659999e+01 8.7957075296250000e+00
5 1 9.8119774815799996e+00 1.3172556089590000e+01 1.1469700445550000e+01
6 1 9.7497393046149998e+00 3.1544402599720001e+00 4.3164520174450001e+00
7 1 1.9058721150830000e+00 2.6520363888210001e+00 3.3692959822680000e+00
8 1 1.3178951110290001e+01 5.4950073623670004e-01 1.2623427143740001e+01
9 1 1.4467190444430001e+01 5.2653639631070002e+00 1.5309336347860001e+00
10 1 6.0277460939470000e+00 8.7155360984710004e+00 9.6922805864259995e+00
11 1 6.0160386825719998e+00 6.6851658943879997e+00 1.4511155707600000e+01
12 1 1.0009605722960000e+01 9.0382689844510006e-02 1.4596544259110001e+01
13 1 1.5663433764240001e+01 1.5733630116350000e+01 2.3567578178790001e+00
14 1 4.5569334431490001e+00 1.4061919105350000e+01 2.7092175900719999e+00
15 1 1.1748661382129999e+00 1.5290396108970000e+01 1.3021836034500000e+01
16 1 1.0852812656179999e+01 1.3169308488020000e+01 2.5954297117729999e+00
17 1 3.7278571722609999e+00 1.0675116361120001e+01 5.7203104568300001e+00
18 1 9.9854889649709992e+00 9.5874629879190003e+00 8.9559703597800002e+00
19 1 8.5021147479669992e+00 6.1247707230200001e+00 1.0009187919200000e+01
20 1 1.1613725413399999e+01 6.9418387495060001e+00 1.6069527458410001e+01
21 1 5.4651477000400002e+00 9.0313257402570002e-01 9.6406115448190004e+00
22 1 2.5156529308570001e+00 6.6068459154579999e+00 1.7244523223970001e-01
23 1 1.4993155149460000e+01 4.0163223653350002e+00 1.0286478034640000e+01
24 1 7.8944132609470001e+00 8.2251111091600002e+00 5.6594296222739997e+00
25 1 1.4184296775180001e+00 1.2696810196800000e+01 7.0693979869519996e-01
26 1 5.7057143590450004e+00 1.3212826121279999e+01 8.5895915376929999e+00
27 1 1.6081533521670000e+01 7.5805794304649998e-01 5.5799686426540003e+00
28 1 5.7219367397210004e+00 5.0439969711849999e+00 7.2123842123330002e+00
29 1 7.3659786166909997e+00 1.2704255610250000e+01 1.5793454368810000e+01
30 1 4.5476048011580001e+00 3.6405565953570002e-01 5.3036175775709999e+00
31 1 6.8711904034300000e+00 1.2020600504790000e+01 4.0405414558570003e+00
32 1 2.0747903034980002e+00 2.9339010656919999e+00 7.9632537795570002e+00
33 1 8.5239943468180002e+00 2.0677014545260000e-01 1.0250771041289999e+01
34 1 2.2911328900629999e+00 6.3467053347969999e+00 4.5542524822769996e+00
35 1 7.3226478170059996e+00 2.6729949518399998e+00 1.1882290283060000e+01
36 1 2.5441311434929998e+00 3.3190615478379999e+00 1.1703175772540000e+01
37 1 8.4072903522650009e+00 1.5867444072070001e+01 2.1272250700930000e+00
38 1 1.3611294162520000e+01 8.1056844117050009e+00 1.1321252366860000e+01
39 1 5.5016552822470004e+00 1.7413784217360000e+00 9.7939437308069999e-01
40 1 8.0802339730529997e+00 1.1813689907700000e+00 6.1887895059179998e+00
41 1 1.0100540511160000e+01 9.9696694327090007e+00 1.2689409613880001e+01
42 1 4.1946332563860000e-01 8.8017266520510002e+00 7.8213234817719997e+00
43 1 9.9681804576170006e+00 1.3100516317569999e+01 6.6485717706380001e+00
44 1 1.4195704895560000e+01 1.3816726623230000e+01 1.5385741102930000e+01
45 1 1.4668717714830001e+01 8.7485199053470009e+00 1.5832450130280000e+01
46 1 1.2682081200230000e+01 1.6732981477130000e+00 1.9861297335620001e+00
47 1 2.9472840729340000e+00 7.0276680128029998e+00 8.7660173755039992e+00
48 1 3.2518874885650000e+00 9.6677916146519998e+00 1.3759995763779999e+01
49 1 1.5269869376620001e+01 9.7247343306089995e+00 3.7777097142859999e+00
50 1 1.3099564560370000e+01 1.1054252039320000e+01 6.6788299969100002e+00
51 1 1.4958163372139999e-01 1.2949215109690000e+01 7.6955578002729998e+00
52 1 1.2013725661340001e+01 1.7647333272190000e+00 8.6777849155499993e+00
53 1 9.4516198832199994e+00 3.0863120891730000e+00 1.5714969878910001e+01
54 1 2.9650203163650000e+00 9.9399057025370006e+00 2.0775307390640001e+00
55 1 8.1776975259269999e+00 9.0161150825629992e+00 3.2470188797770000e-01
56 1 3.1861839155520002e+00 1.2119099125980000e+01 1.0555182330319999e+01
57 1 1.2711697222300000e+01 4.1693389702249997e+00 1.3913282598000000e+01
58 1 6.7469015483170001e+00 5.5520551850560000e+00 2.8760483605970002e+00
59 1 1.3239646331130000e+01 1.4824874251750000e+01 5.3143647793750004e+00
60 1 1.3085153132340000e+01 7.1124958098909996e+00 7.7194039704110002e+00
61 1 1.3588092138680000e+01 3.8987701575500000e+00 5.5332745603489997e+00
62 1 2.1951766237129999e+00 2.5471173122230000e+00 1.5268070679879999e+01
63 1 5.4285054095730001e-01 6.9898331172989998e+00 1.2225781599710000e+01
64 1 1.3764723230610000e+01 1.2120657439860000e+01 1.0274612029880000e+01
65 2 1.5119220456520001e+01 9.9685112349890002e+00 1.3014908476270000e+01
66 2 7.0692910619640004e-01 1.1293520389690000e+01 1.2396637665309999e+01
67 2 1.1326815680930000e+01 6.9402013092179997e+00 4.3456991548920003e+00
68 2 9.9726176772269994e+00 8.2347244839869997e+00 2.9938667294890000e+00
69 2 4.5277349917879999e+00 1.5889970384690001e+01 1.2882718242959999e+01
70 2 4.6969921465650000e+00 1.3992564553539999e+01 1.4323084296499999e+01
71 2 1.0076504122540000e+00 1.5874252508900000e+01 9.1675669659800008e+00
72 2 1.4956624862940000e+01 -1.5468771149060001e-01 8.4703821147749991e+00
73 2 1.0809744975730000e+01 1.2851327370380000e+01 1.0925782939879999e+01
74 2 8.8290890520950001e+00 1.3364214183270001e+01 1.2054791093830000e+01
75 2 1.0351848369320001e+01 2.1488106347970000e+00 4.2524727327159999e+00
76 2 9.2292146880689998e+00 4.1867797444689998e+00 4.3599523340479998e+00
77 2 1.1572758463280000e+00 3.3695468436059999e+00 3.9204571814859999e+00
78 2 2.5926461803529999e+00 1.9427379635399999e+00 2.7232086950420000e+00
79 2 1.2396932647990001e+01 8.5497833670419998e-01 1.1790354622460001e+01
80 2 1.3992340115759999e+01 1.8678143464880001e-01 1.3354352361500000e+01
81 2 1.5174544131450000e+01 4.5306387481629997e+00 9.2511100572500005e-01
82 2 1.3759697182160000e+01 5.9967075674870003e+00 2.1056214809089999e+00
83 2 5.3599648420139996e+00 8.8465801479659998e+00 1.0631378787370000e+01
84 2 6.7376121952819998e+00 8.6913667675589998e+00 8.7391713591679991e+00
85 2 6.0179383800680002e+00 5.5278101206460004e+00 1.4690988819879999e+01
86 2 6.0154285492159998e+00 7.8712282917990004e+00 1.4393078093980000e+01
87 2 8.8716543177679998e+00 3.5328997543099999e-01 1.4662734403869999e+01
88 2 1.1129601819179999e+01 1.6079568159920001e+01 1.4646461078560000e+01
89 2 1.5459725797470000e+01 1.4811553709680000e+01 3.0776094142199999e+00
90 2 -2.7013806036540000e-01 4.3820172898310000e-01 1.6499238815760000e+00
91 2 4.3518369271989998e+00 1.4190148867130000e+01 3.8756784274800000e+00
92 2 4.8163567497389996e+00 1.3876609287810000e+01 1.5844193591680000e+00
93 2 1.4328358474509999e+00 1.4372029720540000e+01 1.3696037554289999e+01
94 2 7.7641342413159997e-01 -3.9855455236239998e-02 1.2383009160060000e+01
95 2 1.0560172020890001e+01 1.2026835440830000e+01 2.5675253000970000e+00
96 2 1.1217261056310001e+01 1.4280312084689999e+01 2.5902840948289998e+00
97 2 3.3467324407580001e+00 1.1768046625269999e+01 5.8554196750180001e+00
98 2 4.3153890782489999e+00 9.7149405526300008e+00 5.4070659092240003e+00
99 2 9.7116772540399996e+00 1.0394539364340000e+01 9.7531738557769998e+00
100 2 1.0207250012890000e+01 8.6773516370589991e+00 8.2386575380880007e+00
101 2 9.1262008526739997e+00 5.4109098569469998e+00 9.2919486388920003e+00
102 2 7.8346395967960003e+00 6.7896130854190000e+00 1.0730730958840001e+01
103 2 1.1081174979740000e+01 6.5773056111360004e+00 8.5207554564450005e-01
104 2 1.2076714881419999e+01 7.1934855209719997e+00 1.5064971281489999e+01
105 2 5.2103074301849999e+00 2.0212396860170001e+00 9.4938344244209993e+00
106 2 5.6381013317380004e+00 1.5936331819290000e+01 9.6191864892210006e+00
107 2 3.5356564005119999e+00 6.5919547609780000e+00 1.5817567787970001e+01
108 2 1.4879225327950001e+00 6.6393094065009999e+00 7.3940468250589997e-01
109 2 1.5044549795589999e+01 3.5625812328660000e+00 1.1375053809740001e+01
110 2 1.5039000689390001e+01 4.4661373980210000e+00 9.1857311548940004e+00
111 2 8.6054511798669999e+00 9.1411572764940008e+00 5.8833192733989996e+00
112 2 7.2468806615909998e+00 7.2579762911760000e+00 5.3521188540939999e+00
113 2 1.7403132637600001e+00 1.3492133673360000e+01 1.5214515213599999e+00
114 2 1.0149683557839999e+00 1.1908219188020000e+01 1.6146806552609998e+01
115 2 6.8367909415719996e+00 1.2988825916400000e+01 8.9021140454130006e+00
116 2 4.5757582785229998e+00 1.3401385401280001e+01 8.2285650719689993e+00
117 2 1.0101540574200001e+00 5.3857035362990002e-01 5.8784140894589996e+00
118 2 1.5015208461280000e+01 9.9384872013650005e-01 5.1756871141229999e+00
119 2 6.0129695959770002e+00 5.6991696703479997e+00 8.1415847886070001e+00
120 2 5.2682200620280000e+00 4.3536113425570004e+00 6.3562159079000002e+00
121 2 6.9937271667490002e+00 1.1631907318140000e+01 1.5479198983840000e+01
122 2 7.6960840203299998e+00 1.3743260469390000e+01 5.3393562158739999e-02
123 2 4.1405487084450003e+00 -1.1931944384650001e-01 6.2914755596149998e+00
124 2 4.9065057444739999e+00 8.7073854428580000e-01 4.3426128600589999e+00
125 2 7.0604155571730001e+00 1.2408702087189999e+01 2.9561670897079999e+00
126 2 6.5869186152900001e+00 1.1518629493580001e+01 5.0725533476929998e+00
127 2 1.5523762361610001e+00 2.3523922548220000e+00 8.8554912084430004e+00
128 2 2.5730893124810001e+00 3.5473417883290002e+00 7.1011766444570004e+00
129 2 8.7381103205269994e+00 3.0570432173060003e-01 1.1388777394150001e+01
130 2 8.3577438423029999e+00 2.8919475500780001e-01 9.1122407189730001e+00
131 2 2.5465962865040002e+00 6.3785269744089996e+00 3.4004352904880002e+00
132 2 2.1765733760289998e+00 6.4563147996810004e+00 5.7316384832470000e+00
133 2 8.1036148260169991e+00 3.1122204369460000e+00 1.1086062378970000e+01
134 2 6.5184156734550003e+00 2.3619157266930002e+00 1.2669312129680000e+01
135 2 1.5028541729339999e+00 3.1254095748180002e+00 1.2163286808250000e+01
136 2 3.5818756825390001e+00 3.6520654469579998e+00 1.1398294855330001e+01
137 2 9.2597375631510008e+00 2.8910910897990000e-01 1.6295785458290000e+00
138 2 7.5757688778650003e+00 1.5255243909440001e+01 2.6625014318189999e+00
139 2 1.4127087066830001e+01 7.1052707147209997e+00 1.1621296107510000e+01
140 2 1.3092623849760001e+01 9.0604082004880002e+00 1.0927018251920000e+01
141 2 6.4549185008389998e+00 2.3851145365959998e+00 1.1915402849900001e+00
142 2 4.5931463020330003e+00 1.0116555446930000e+00 7.1727194768080005e-01
143 2 8.1182240022769996e+00 1.2162494023820000e-01 5.6611057687119999e+00
144 2 7.9769493696189997e+00 2.2719421321139999e+00 6.6116360657189999e+00
145 2 9.7122411723350002e+00 8.9845929841790007e+00 1.2212759499540001e+01
146 2 1.0500652893710001e+01 1.0934135293160001e+01 1.3188122898140000e+01
147 2 6.6646563553420002e-01 9.5349795398670008e+00 6.9265214434970002e+00
148 2 1.6211884951420000e+01 8.0554018831969998e+00 8.6700982354649998e+00
149 2 9.0962372131600002e+00 1.2347265996390000e+01 6.4753918090019997e+00
150 2 1.0782346514300000e+01 1.3909355126990000e+01 6.8044368716679999e+00
151 2 1.5048552397050001e+01 1.4252551011290000e+01 -1.4896941012289999e-01
152 2 1.3359391631159999e+01 1.3279030078140000e+01 1.4724751453630001e+01
153 2 1.4182748719390000e+01 9.7909097071459996e+00 -7.8676336899980007e-02
154 2 1.5026028932799999e+01 7.6565081944460003e+00 1.5687438077470000e+01
155 2 1.2781227727479999e+01 2.8457987679099999e+00 2.0317398941690001e+00
156 2 1.2667762261360000e+01 5.1563507512380002e-01 1.9537501058190001e+00
157 2 2.6058642115730000e+00 6.0340337435780000e+00 9.2558635626749997e+00
158 2 3.2942597942290002e+00 8.0187329112010008e+00 8.2291654467830000e+00
159 2 4.0764567436209997e+00 1.0166924515760000e+01 1.3053084886790000e+01
160 2 2.5709967516310002e+00 8.9667347593050000e+00 1.4443912807600000e+01
161 2 1.4227340810990000e+01 1.0134082122200001e+01 4.0947102399649999e+00
162 2 1.3540151330059999e-01 9.2156081520159994e+00 3.5943565068700001e+00
163 2 1.4169606711640000e+01 1.0672434435280000e+01 6.8930487267630003e+00
164 2 1.2013827964240001e+01 1.1398166731530001e+01 6.4440220831120003e+00
165 2 -6.0244764276510002e-02 1.2356819371689999e+01 8.7203170212710006e+00
166 2 3.2279668739049999e-01 1.3636278447670000e+01 6.7615795520309998e+00
167 2 1.1186796515450000e+01 1.1868408794790000e+00 8.0501259755190002e+00
168 2 1.2799484832770000e+01 2.2812231166869998e+00 9.4346827365110002e+00
169 2 1.0156368908470000e+01 2.5931416157310001e+00 3.0273124788919997e-01
170 2 8.8409594976240005e+00 3.5070380873980000e+00 1.4806996598850001e+01
171 2 3.3270284616410000e+00 9.3793162939469994e+00 1.1075592171819999e+00
172 2 2.5984607209680002e+00 1.0571149912830000e+01 2.9732975391709999e+00
173 2 9.0456648243920004e+00 8.4366276200900003e+00 1.6018074258930000e+01
174 2 7.2454784074419996e+00 9.5051847272599996e+00 9.0980804297450002e-01
175 2 3.6137777576370000e+00 1.2847824714950001e+01 1.1386075095230000e+01
176 2 2.6655697787740000e+00 1.1558059532190001e+01 9.6872320976580006e+00
177 2 1.2463471620780000e+01 4.8214023282409997e+00 1.2953147149459999e+01
178 2 1.2768148390660000e+01 3.4636668691360000e+00 1.4844398273480000e+01
179 2 5.8789157401610002e+00 5.0374087905720000e+00 3.4708572435180001e+00
180 2 7.5381682659780003e+00 6.0307238817980000e+00 2.1553470870750000e+00
181 2 1.3662712533950000e+01 1.4016379350859999e+01 6.0338176499609997e+00
182 2 1.2835320210200001e+01 1.5709791364499999e+01 4.6867950173470003e+00
183 2 1.3531715700790000e+01 7.7414948891110003e+00 6.8304527675589997e+00
184 2 1.2720925342959999e+01 6.3863374011119998e+00 8.5977945799879993e+00
185 2 1.2439123202479999e+01 3.8669871030479999e+00 5.6645907127250004e+00
186 2 1.4734038724490000e+01 3.9692576998279998e+00 5.3180733850789998e+00
187 2 1.8783896234710000e+00 1.5647077701859999e+00 1.4670184189150000e+01
188 2 2.5756172983969998e+00 3.5352677132690000e+00 1.5776221787240001e+01
189 2 3.4937898769039999e-01 5.8348055517899997e+00 1.2454867993720001e+01
190 2 8.9207041111499996e-01 8.0732966377909996e+00 1.2013075361520000e+01
191 2 1.4090188365830000e+01 1.2390097217990000e+01 1.1387061245070001e+01
192 2 1.3381483559279999e+01 1.1916219084930001e+01 9.2090172763790008e+00

Velocities

1 2.9012478989949999e+00 4.4069507864890003e+00 -4.1485067917020002e+00
2 1.7727342970190001e+00 -2.4511074629960001e+00 -2.0110494517449999e+00
3 -2.3622356817750001e+00 7.9692648061240001e-01 -8.0763338347149993e+00
4 -6.3413648794389998e-01 -7.2207336422479997e+00 9.8644907828680004e-02
5 6.8590879881430000e+00 -5.6072515587170004e+00 -1.2787847344540000e+00
6 2.5855856157849999e+00 -1.9033563238480000e+00 1.2091178011090000e+00
7 2.9717972737800000e+00 -7.7545206610550004e+00 -6.7766751641059999e+00
8 5.2896883526320004e-01 7.4962545067440001e+00 -4.4722176121770003e+00
9 -8.5697675564650000e-01 1.6921976850789999e+00 1.9533818825989999e+00
10 -1.3023627309590000e+00 3.0746400989190001e+00 -1.0517491430860000e+00
11 5.8481670382759998e-01 -3.4835287870239999e+00 5.6844401922790000e-02
12 -1.2335873138850000e+00 -4.0723508571259996e+00 3.0094176837909998e+00
13 3.8148349508980002e+00 8.1952382635040006e+00 4.2228921462039999e+00
14 -2.3685943534320000e+00 2.5814602764360002e+00 1.5496864495380001e+00
15 6.9902771674770003e-01 3.0985310549200001e-01 3.3072986996000000e+00
16 -3.7872390726749998e+00 -2.5710610623400001e+00 1.1595366267950000e+00
17 -5.7302165256909998e-01 4.2789815420069999e-01 -5.9716564749890004e+00
18 1.5904462974050000e+00 -1.4053278804810001e+00 -1.7739816948360001e+00
19 -1.5963129403659999e+00 4.8013082406340004e+00 4.6892684899830002e+00
20 -7.9999772308760004e+00 5.2536519017199996e+00 -7.9441371017600000e+00
21 4.3369507665790001e+00 1.3478002046949999e+00 5.9192063296309998e+00
22 -2.8486422568480002e-01 -1.1471433588020000e+01 -2.9384671401719999e+00
23 -3.1876165147619999e+00 4.2646061944740001e+00 -2.9999265169400000e+00
24 -4.7148903379079998e+00 5.5893632794560002e+00 4.6167388000029996e+00
25 -5.3382349598029997e+00 -3.7433487155020001e-01 9.0952297778729996e+00
26 9.2531915731650005e-01 -5.6080540108300001e+00 -2.3621844555049998e-02
27 3.1805415806699999e+00 -2.8522476136910000e+00 -4.9407288907979998e+00
28 2.0422741921370000e+00 -5.6693267648449996e+00 -2.2512207839610001e+00
29 -1.8150508444240001e+00 -2.5739387826820002e+00 -7.6451058105610004e-01
30 -5.0722504012760004e+00 -3.5907852396450002e+00 2.4638205611970001e+00
31 -4.7517011827220001e-01 -7.3445959044349998e+00 -3.2781249486149999e+00
32 5.6626531274209997e+00 -3.7151199203330001e+00 2.5029640012569998e+00
33 -1.7122690730370000e+00 1.0962130602969999e+01 1.0806046694250000e+01
34 -5.7546247263649999e+00 3.2450195146060001e+00 -8.5636454213059992e+00
35 -7.1766692653429998e-01 -8.5686851231880006e+00 -6.5920936331739997e+00
36 6.3455914723830000e+00 6.2399050044829996e-01 1.6938229293989999e+00
37 7.9118294902580004e+00 -2.7202511078280001e+00 2.3104375180000001e+00
38 -3.0206296678430000e+00 4.1246757539840004e+00 3.3315589957310001e+00
39 1.8148448014820000e+00 3.9741815401960001e+00 -4.6515474138519997e+00
40 2.3383362465670001e+00 -7.7501421648299997e+00 3.8853806792470000e+00
41 3.9680537575360000e+00 1.6619473722810001e+00 1.0445450432229999e+00
42 -2.7969907656970001e+00 -1.8876258295709999e+01 2.3752497205849998e+00
43 -2.6056912625970000e-03 7.0339915353329996e+00 -2.2043324591930000e+00
44 8.4966380876999992e+00 -1.2767700544380001e+00 -7.3934664391949996e+00
45 1.7120064063910001e+00 2.6622043109029998e+00 9.1168426105529998e-01
46 4.9712691534909998e+00 -2.2883115055130001e+00 1.2352928366000000e+00
47 -5.9790395157390002e+00 -4.0179511757419997e+00 -4.3140474271920004e+00
48 -6.4451132291029998e+00 7.8207229771289999e-01 -1.3900969827580001e-01
49 -6.4722697023869999e+00 6.0614284457340002e+00 3.9717714531569999e+00
50 2.1160913540839998e+00 -1.8082220856360001e-01 5.8436402212800003e+00
51 -3.3257259183870000e+00 7.8431595837170001e+00 -5.9356806851080002e+00
52 5.3611262471670003e+00 5.2401569935059999e-01 -4.3296785571329997e+00
53 -4.2878700079790004e+00 1.7919132073390001e+00 8.0565690255919997e-01
54 2.1562369464639999e-01 3.9548808480780000e+00 -3.2864296157699999e+00
55 8.1302438726270001e+00 -1.8854273743629999e+00 2.4783566899760001e+00
56 1.4846270046620000e+00 8.3002280817689993e+00 2.5537453915669999e+00
57 -7.9996254068770001e-01 -1.8375163490769999e+00 -2.9611998384520000e+00
58 1.9400056770220000e+00 2.7199938396689999e-01 1.0667262729780000e+00
59 -2.7753538222310001e+00 6.4407883761200004e+00 -1.2495977664469999e+00
60 -2.3349311885840001e+00 4.8290830279529997e+00 3.7587659076520001e+00
61 -2.7425367911470002e+00 2.0488648518920001e+00 -4.4742598527060000e+00
62 2.6039618792730002e+00 6.6324288753829999e+00 -5.9535716489409998e+00
63 9.7628013259890001e-01 2.2283028588009999e+00 3.7310120901469999e+00
64 6.0550455331449999e+00 -7.3807607458769997e+00 1.5561401917390001e+00
65 -3.9729244355460001e+00 2.7529487413100000e+00 -1.2758620563650000e+01
66 2.2124777558069999e+00 9.3900589399589993e+00 -5.1436341375939998e-01
67 -2.0252147316280000e+00 2.1726713878730002e+00 -3.1420949191090002e+00
68 -8.1154289762539999e-01 -5.1156140953460003e+00 9.2509789582009994e+00
69 4.0157015672309999e+00 -3.5194803690490000e+00 -3.2367274640989998e+00
70 2.4770096473410002e+00 -3.4094725332009999e+00 8.4498224243520004e-01
71 -1.9925452812160001e+00 7.5959691006029999e+00 -6.6383946120530002e-01
72 -1.8285027442360000e-01 -2.3869571495509998e+00 -3.1933325540969998e-01
73 2.5267473988570002e+00 2.5347193371570000e+00 -3.0626731395869999e+00
74 -2.1095372290359999e+00 -2.1176736274320000e+00 -8.0134442003579998e-01
75 -3.2071517240950000e+00 4.0767592417899996e+00 -3.5885954010760002e+00
76 4.7020761265099997e+00 2.9837758696560002e+00 -1.8402648518300000e+00
77 2.1751921589009999e+00 -8.4742717522049996e-02 -8.8734897915190003e-01
78 1.6674617357120001e+00 2.8508932506210001e+00 1.6594291740530001e+00
79 -6.2382779489590003e+00 -2.9072781197510000e+00 5.1327395355620000e+00
80 6.0775201627609998e-01 -3.7082267728530001e+00 -1.4590023309950000e+00
81 -3.7731576213650002e+00 -3.5817409974879999e-01 -6.4550797774199999e+00
82 -2.7473125308669999e-01 3.8941051451120001e-01 6.9329991706039999e+00
83 -5.9019014614040000e+00 -7.9149198026190000e+00 9.5508291529750000e-01
84 1.7715288259930000e+00 -3.0447249547080002e+00 5.3448349689599999e+00
85 -2.9292514857550001e+00 1.7118074563600001e+00 -5.9747890169120002e+00
86 3.7860461976740001e+00 8.2671357208610008e+00 1.8049376444859999e+00
87 -2.8339113404090002e+00 -1.9031671784660000e+00 2.8861332741200001e+00
88 9.4350788069030003e+00 5.1168294832720003e+00 -3.1302866666210001e+00
89 -1.1123371121700001e+00 -1.1847013820870000e+00 -5.6678035034380003e-01
90 -6.8307271040110003e+00 -7.1992693304440003e-01 5.2097909255379999e+00
91 5.2804989384919998e-01 5.3738645900520003e+00 -1.9571352879030000e+00
92 3.5964233431679999e+00 -1.7207308241649999e+00 1.0627172681249999e+00
93 -5.1776412743089999e+00 -8.2774005782000004e-01 3.2480907379369999e+00
94 -4.6184017325600002e-01 -6.9501420510290002e+00 -1.2138900591920001e+00
95 8.4664684173470004e+00 6.2607910993350002e-01 -6.1591043484889996e+00
96 3.5660980413079999e+00 7.8839150646849998e-01 1.8561384796900000e+00
97 1.5654386414690000e-01 -5.6911195417510001e+00 7.4118695505190004e+00
98 -1.4554414506260001e+00 6.6314806983699999e+00 -4.6570177009210001e+00
99 1.9742738505110000e+00 8.1587760431970002e-01 -1.0639735866769999e+00
100 2.6276519801870002e+00 4.2266183932000001e-01 4.5386023619900001e-01
101 2.5500224281669999e+00 -2.0133492071179999e+00 7.3937015674710000e+00
102 7.1836285699610003e-01 7.2511123992589999e-01 -3.4279756888059998e+00
103 2.9833302452170001e+00 -3.9506423388449998e+00 1.1977221444590000e+00
104 -1.2133233461220001e+00 -3.5402879262460002e-01 4.7852855024079997e+00
105 -8.6402292965850003e-01 2.0013568028550002e+00 1.2499721701680000e+00
106 6.4914333531799997e+00 -1.4316029804329999e+00 2.9311423695380001e-01
107 -3.4419873364879998e+00 -2.6878532725130002e+00 5.1523950070989999e+00
108 6.8681083118729997e+00 2.2575547232190001e+00 2.2052755057389999e+00
109 -1.3050407930640000e+00 3.8159550340449999e+00 -2.3372829589399999e+00
110 3.9301175943400000e+00 2.6257075456689999e-01 -1.9504489631060000e+00
111 -5.5219353683450001e-01 -1.9702523207560001e+00 4.1684521811169999e+00
112 -4.2383826372810002e-01 -2.4979894465629999e+00 1.1553925634840001e+00
113 -1.8121740015979999e+00 -6.0500867615429998e-01 2.4510337037990002e+00
114 -1.9667043133100000e+00 -1.3963606006910001e+00 -1.9204147356379999e+00
115 -2.0186438093780001e+00 2.1755122199789998e+00 4.2361962028539999e+00
116 -5.9664727920329996e+00 -2.3772392854870001e+00 -3.0024699917359998e-01
117 2.0219213663400001e-01 -5.8493511341740003e+00 -1.5422293014970001e+00
118 6.3017355446690004e+00 1.9763925299430001e+00 -2.2100613073830000e-01
119 8.6584936979899996e-01 4.0524023196740000e+00 4.3182565838720004e+00
120 -1.5962083461950001e+00 4.8024724169909998e+00 -6.0814343459889999e+00
121 -6.1968044299849998e+00 -5.3448203731759998e+00 1.9318538589090000e+00
122 3.5238492089930000e+00 1.0410290733580001e+00 -2.3537210097619998e+00
123 -3.3095175114090001e+00 -4.9889261996489997e+00 1.2996003242990000e+00
124 -1.3885614039659999e+00 -1.3048143360119999e+00 2.0035893380420000e+00
125 -3.7241327409689999e+00 -3.8452528339219998e+00 2.9292003318119999e+00
126 -3.6437404438400001e+00 3.9804179563509998e+00 -1.3660127149950001e+00
127 -4.6120462000479998e+00 1.1088106765779999e+00 3.8085291390620002e+00
128 3.7676416339109999e+00 7.4709156660420000e+00 -6.5372099485330004e+00
129 -6.4234429189760001e-01 -4.6639374348870000e+00 6.9646074737759998e+00
130 -5.0521538452290005e-01 -1.7144944129519999e+00 -4.5548552962090003e+00
131 -5.1109694198210001e+00 5.1017686446040003e+00 6.0507245000839998e+00
132 7.2442581462069997e+00 6.9220932340859997e+00 1.6747273358770001e-01
133 3.3479200917390002e+00 4.5462053994209999e+00 8.3761560267240007e+00
134 2.4586826210320001e+00 -5.4154815437629997e+00 2.0602884097090002e-03
135 1.4535445360799999e+00 -1.5760874503900000e+00 2.2121712751249998e+00
136 -3.0021546578049998e+00 1.4333841716960001e+00 4.9711152790020002e-01
137 2.0065930408310000e+00 -7.1984339842659999e+00 4.8516483111359998e-01
138 -5.0057800912839996e+00 -1.2428497084210000e+00 -2.5352787579760001e+00
139 2.2985416066269999e+00 -3.6158745667360002e+00 -2.1024889099460000e+00
140 2.9147423722029999e+00 4.7272130127920002e+00 -3.1096071934939999e+00
141 5.2888857824080002e+00 -3.8296147548150001e+00 -1.7682388812700001e+00
142 9.6400647062550004e-01 3.9696740429220001e+00 3.0084846857100001e+00
143 1.0407454553290001e+00 -6.1067389854879996e+00 5.6990601801969998e-01
144 2.9528351262690000e+00 3.8075998597159999e+00 1.0410825012630001e+00
145 -3.0237916527080002e+00 -2.7381058309589998e+00 -3.6049400759710002e+00
146 -2.3401662063069999e+00 -6.3380447505879998e+00 -1.0318653814700001e+00
147 1.3556068421959999e+00 -5.7347335502199996e+00 2.4233615748099999e+00
148 3.2068168701660000e+00 -4.1217104806169997e+00 -9.6924093224109997e-01
149 3.4699184857879999e+00 9.4990705595059999e-01 2.4135590681169998e+00
150 -2.8327115928300000e+00 2.0863261450069999e+00 -4.0700781252229996e+00
151 6.9839142154390004e+00 -5.3531693364709998e+00 -6.5835695321459999e+00
152 -6.1760072660800001e+00 -3.6020388561969998e+00 -1.2062784397999999e+00
153 1.2969567196939999e+00 4.6294769234760000e+00 -1.3131324075419999e+00
154 3.6389125775650002e+00 1.7735699256349999e+00 6.9548007677759998e+00
155 1.1056083249230000e+00 -3.9062007363590001e+00 -2.3718924758619999e+00
156 3.1093490741130001e+00 1.5927821774499999e+00 1.1501381766979999e+00
157 7.9779742429099998e-01 -2.0632666341510002e+00 -4.6049273255339997e+00
158 -2.4226233471619998e+00 3.8313525707540003e-01 -4.7240676225089997e+00
159 -4.1893767431739999e+00 -3.8279113812959997e-01 4.6705172917590003e+00
160 -3.6853150611609999e+00 9.5934042934520001e+00 -3.7575687838850000e+00
161 -1.0566389140170001e+00 -5.1589052492669998e+00 2.6503077679480003e-01
162 -1.5946011968720000e+00 1.0789700286780000e+00 1.1340348885020000e+00
163 -5.1813747570770001e+00 -1.4528122290100001e+00 1.6864020840009999e+00
164 1.2046235757010000e+00 3.8416387472790001e+00 2.5858226538859999e+00
165 -5.6035144680310003e+00 -3.2416171380150001e+00 -1.7598530481930000e-01
166 3.2353312878320000e+00 4.1298936749879998e+00 5.3598166743529996e+00
167 2.2086925555639998e+00 7.1651428601829998e+00 4.7364996718199999e+00
168 -2.9404226823460000e+00 2.4830004222230002e+00 2.0071465239499999e+00
169 -1.1777214266030001e+00 -2.2772047486610001e+00 -8.1252053447640005e-01
170 2.3363910505800001e+00 -3.1436301876430002e+00 2.9767263134289998e+00
171 8.9519539921879998e-01 -4.7509697788149996e+00 -4.8767857209220002e+00
172 -1.1507861348270001e+00 7.2816265300480003e+00 3.2751276561079998e+00
173 6.3983970418140002e-01 1.4971463510370000e+00 -4.2783562551139998e-01
174 -6.2906953071989999e+00 1.4027619715410000e+00 -5.2319111525500004e+00
175 -9.1457080099290000e-01 3.1562750167679998e+00 -2.0353414761159998e+00
176 -4.3137182386989998e+00 -7.5863903315490004e+00 -4.9696612627210000e+00
177 -6.1807191468919997e+00 -1.2238406875720000e+00 -1.6892108355860000e+00
178 1.6569032830940000e+00 7.9734414031379997e+00 8.4536429316200001e-01
179 -4.2865691966260000e+00 -1.3363648981480001e+00 1.9607086707179999e+00
180 -1.1196653249899999e+00 1.8481733916709999e+00 5.8421169233340002e+00
181 -9.6131614881159999e-01 -1.6299095111910000e+00 -3.2159855938080000e+00
182 -1.6243153001640001e+00 6.2586249259970002e+00 1.5407844755290001e+00
183 8.7956145158020005e-01 -5.3524956955410001e+00 -1.3414827803350000e+00
184 9.2718301729050001e-01 3.2605423554340002e-01 7.1139590219660001e+00
185 -3.0947662392780000e+00 1.1074012364130000e-01 2.3064679213310000e+00
186 -2.4403483126770000e+00 2.2923016207220002e+00 -4.2114750948810000e+00
187 2.2645323048810000e+00 -1.1528335329899999e+00 -4.3708012511570002e+00
188 -1.1596778922830000e+00 2.4394506219640000e-01 -1.8549807628790000e+00
189 2.8596797783539998e+00 6.9622851832050003e-01 -4.9795529510780003e+00
190 2.2290871628089999e+00 4.9290095301130004e+00 6.8443103670960004e-01
191 1.1490831394520000e+00 -4.3402332653510003e+00 -1.7454164027110000e+00
192 8.4149787728970005e-01 -1.8078985533990000e+00 3.4475890184110001e+00
