LAMMPS data file extracted from NVT dump, timestep 840000, units metal

192 atoms
2 atom types

0.0000000000000000e+00 1.6195563468200000e+01 xlo xhi
0.0000000000000000e+00 1.6195563468200000e+01 ylo yhi
0.0000000000000000e+00 1.6195563468200000e+01 zlo zhi

Masses

1 12.00000000
2 16.00000000

Atoms # atomic

1 1 4.2429887671979998e+00 1.0726053162920000e+01 1.4257195550230000e+01
2 1 3.4159713632500002e+00 5.6297389243130000e+00 1.5797534020750000e+01
3 1 1.2774733700390000e+01 9.6532768577040002e+00 1.0513473066110000e+01
4 1 5.6604795389589997e+00 7.6321272033829999e+00 1.2990881936730000e+01
5 1 3.3672448117120002e+00 5.3766535509419997e+00 8.7973648466859995e+00
6 1 1.0197019363640001e+01 4.9767155352119996e+00 9.6766619985919995e+00
7 1 9.5506453914569995e+00 1.1737056702709999e+01 9.6876529670299991e+00
8 1 1.2690729403270000e+01 5.0180875367029998e+00 3.7721710289110000e+00
9 1 1.6016670017300001e+00 8.3928396496859996e+00 2.1643336409080000e-01
10 1 3.4789769851300001e+00 9.1451818254139994e+00 2.8314806832400001e+00
11 1 6.5273237598540002e+00 2.8421435876559999e+00 9.5887193779949997e-01
12 1 2.9387278168319999e+00 7.7926632344119995e-01 8.1132344844999995e+00
13 1 8.0236388379210002e+00 7.9496591429360004e+00 9.3768434525960007e+00
14 1 3.6084861958409999e+00 4.6857213492550003e-02 2.6509935118180001e+00
15 1 9.6384876212160006e-02 2.0498896170030001e+00 1.1157405778190000e+01
16 1 1.1357408011400000e+01 1.6622064485090000e+00 1.9569641106710001e-01
17 1 8.5064612340200005e-02 1.3032958399120000e+01 1.5466750501500000e+01
18 1 1.1217474366570000e+01 7.6737920881199999e+00 6.7223098314080003e+00
19 1 2.8265453826020002e+00 1.2925570220270000e+01 1.9281777903370001e+00
20 1 4.6349731531360003e+00 1.4998169505570001e+01 1.4281939974009999e+01
21 1 7.6142802103899996e+00 1.4344439712880000e+01 1.4335967838870001e+00
22 1 7.4281159492229998e+00 1.1355635761229999e+01 6.7678374758329998e+00
23 1 7.0500289625150003e+00 1.5660019981080000e+01 8.1869363366380004e+00
24 1 1.3268681655430001e+01 1.2307689676560001e+01 7.2835480267700001e+00
25 1 1.4855732512730000e+01 7.6549632120080002e-01 4.1159277344129999e+00
26 1 1.0093938568180000e+01 8.3620353279550006e+00 1.2416004093900000e+01
27 1 1.0616754916960000e+01 7.4927057653710005e-01 1.0250968665540000e+01
28 1 3.9866425193490000e+00 2.2600854934110002e+00 1.3337948198770000e+01
29 1 9.4146116909639996e+00 3.6769367927580001e+00 6.1649307533290001e+00
30 1 1.4035690029980000e+01 7.5155912190890000e+00 3.9435240336450000e-01
31 1 6.3607912016289996e+00 3.0975597772439998e+00 1.0573628596520001e+01
32 1 1.2448053679010000e+01 1.2990561698790000e+01 1.1503430781500001e+01
33 1 1.2425730595359999e+01 4.3283135768029997e+00 1.2728454396680000e+01
34 1 1.4690545988360000e+00 6.5350386695109997e+00 4.2334736186050002e+00
35 1 1.0422487452630000e+01 1.2761671255740000e+01 3.8279993229640001e+00
36 1 1.2483468379100000e+00 3.0162343348579999e+00 4.2012945516720004e+00
37 1 9.9200213049620001e-01 8.2928206579410002e-01 1.6196428898480001e+01
38 1 5.3632479951659997e+00 1.2776760356320001e+01 1.0924092959510000e+01
39 1 1.6201388613519999e+01 1.3498559860700000e+01 5.2381691492130003e+00
40 1 9.9114909472219992e+00 1.0165768735640000e+01 1.9856602415120000e-01
41 1 8.1771354759949997e+00 7.3718257496950002e-01 1.3969519438230000e+01
42 1 1.2767020057830001e+01 1.4119477777980000e+01 9.2956863281839996e-01
43 1 1.6120993790020000e+00 1.4110035899430001e+01 1.1713705090500000e+01
44 1 5.8373482583930003e-01 6.4652703983200004e+00 1.2198137632270001e+01
45 1 9.2342190321299995e+00 8.7279928115699992e+00 3.9894126362870002e+00
46 1 9.2184624667450006e+00 8.2311042905720000e-01 2.8893873611459999e+00
47 1 1.5588756792070001e+01 4.2636992557299997e+00 1.0536623492079999e+00
48 1 8.3770822235440008e+00 1.2657412900370000e+01 1.4045186719309999e+01
49 1 1.0894889272730000e+01 1.5775174312380001e+01 6.4076944367669997e+00
50 1 1.4483307074000001e+01 1.5778130201860000e+01 1.3096682921270000e+01
51 1 1.5291491282770000e+01 9.3542292635180004e+00 1.3662953450780000e+01
52 1 4.2006507977079997e+00 1.3574732673770001e+01 7.5207332128870004e+00
53 1 6.3937980741310003e+00 7.4182692822399998e+00 1.3869589985949999e+00
54 1 1.3270922866950000e+01 3.0151156616880002e+00 7.2596733052260003e+00
55 1 1.4395125834000000e+01 6.5902414407369996e+00 9.3320159021319995e+00
56 1 3.8813848478280000e+00 9.7558716558979999e+00 7.4916609373869996e+00
57 1 1.4868213567040000e+01 1.0943061534090001e+01 1.4146345236810001e+00
58 1 1.4671500262140000e+01 9.2177204358729998e+00 5.3592773801069997e+00
59 1 4.6909048589859997e-01 1.0495540181250000e+01 8.5507139259990002e+00
60 1 1.4597164197900000e+01 1.4934913183650000e+01 8.9918239936180004e+00
61 1 6.1914551838429999e+00 6.7194918436969999e+00 5.8417211018120003e+00
62 1 5.0296012440139997e+00 2.8622577811040002e+00 5.5823740485080000e+00
63 1 6.2812122749589996e+00 1.1750541821670000e+01 3.4582282209840001e+00
64 1 9.6110559938279998e+00 6.2105221439219997e+00 1.5579557011990000e+01
65 2 4.1327668887550004e+00 1.0013436529690001e+01 1.3362948636130000e+01
66 2 4.3744732386370000e+00 1.1507437570580000e+01 1.5122688502340001e+01
67 2 4.4147398483989999e+00 5.3717778221460000e+00 2.1401792450779999e-01
68 2 2.4426946946550001e+00 5.7518369243020002e+00 1.5180141456299999e+01
69 2 1.1699574750980000e+01 9.2484436220810000e+00 1.0335890425960001e+01
70 2 1.3877099560380000e+01 9.9952213276910005e+00 1.0743211502379999e+01
71 2 6.5571240424940003e+00 8.2754887264400008e+00 1.2525479215590000e+01
72 2 4.7520725061810003e+00 7.1102238614730000e+00 1.3471149352070000e+01
73 2 3.7012842310590002e+00 6.3718577244310000e+00 9.3697205769010008e+00
74 2 3.0886622121539999e+00 4.3353661604009996e+00 8.3223014023180006e+00
75 2 9.5100457391420008e+00 4.0501908401900000e+00 9.8629850080140002e+00
76 2 1.0857200102629999e+01 5.9144008614020001e+00 9.4530307521919994e+00
77 2 1.0081600729540000e+01 1.1842857761490000e+01 8.6604254659750008e+00
78 2 9.1121456794609994e+00 1.1617168004520000e+01 1.0763691792550000e+01
79 2 1.1886260526379999e+01 4.3490643235949999e+00 3.2035932148719999e+00
80 2 1.3527650213390000e+01 5.6603609850709997e+00 4.2279585299180003e+00
81 2 2.4122745758030000e+00 9.0501631511619998e+00 1.5846526012560000e+01
82 2 8.4106457149699998e-01 7.7101066770530000e+00 7.7164448134459995e-01
83 2 4.5286266449710002e+00 8.7534590853090002e+00 3.0016358732800001e+00
84 2 2.3529451670950001e+00 9.4512724734399995e+00 2.7876564394990000e+00
85 2 6.2427700306789999e+00 3.1466919277840000e+00 2.0480214604220000e+00
86 2 6.8797348098590003e+00 2.5501990054840000e+00 1.6048768479829999e+01
87 2 2.5298972375019999e+00 1.1137488764850001e+00 9.1542383596639993e+00
88 2 3.4038015101510002e+00 5.3424101618630004e-01 7.0340023500970004e+00
89 2 8.0548392209700008e+00 9.1015627832919996e+00 9.7001916405240003e+00
90 2 8.0580953609150008e+00 6.8223023121640001e+00 8.9625363196979997e+00
91 2 2.8793617554700002e+00 1.5730335752640000e+01 3.4037301264609998e+00
92 2 4.3389065963839997e+00 6.1791749735729995e-01 1.8760032678150000e+00
93 2 1.5281262866190000e+01 1.9484522789290000e+00 1.0558899644400000e+01
94 2 1.2099486309459999e+00 2.2017775772690000e+00 1.1547164538470000e+01
95 2 1.0540864709139999e+01 2.4664726966460000e+00 2.0670317765849999e-01
96 2 1.2161383983089999e+01 8.4092701855359997e-01 2.2376757339889999e-01
97 2 1.5086782461129999e+01 1.3221773276020000e+01 1.5511450372020001e+01
98 2 1.2451835205640001e+00 1.2822644055340000e+01 1.5335741509540000e+01
99 2 1.1312287229450000e+01 6.5687111550710000e+00 6.3404928070300004e+00
100 2 1.1182989175090000e+01 8.7453981406069996e+00 7.1827003245230001e+00
101 2 1.7567793346550000e+00 1.3188598321970000e+01 2.3268469608359998e+00
102 2 3.9541699220480000e+00 1.2783552809960000e+01 1.5458573844740000e+00
103 2 5.7046168616830002e+00 1.5396793501900000e+01 1.4087530687699999e+01
104 2 3.5663361379610001e+00 1.4651282057270000e+01 1.4585345266619999e+01
105 2 6.4836906604730000e+00 1.4593518645690001e+01 1.6379615413760000e+00
106 2 8.6550668380359994e+00 1.3901556163240000e+01 1.1544111950000000e+00
107 2 6.8712145567130003e+00 1.0742422360500001e+01 7.6082531039120003e+00
108 2 7.8892808378529997e+00 1.2063427482870001e+01 5.9373129869339998e+00
109 2 6.9122296013200000e+00 1.4797910633150000e+01 8.9660515591529997e+00
110 2 7.4461367403440004e+00 3.7831391013229998e-01 7.5828848255710000e+00
111 2 1.3180075256889999e+01 1.1391698304349999e+01 8.0419375420399994e+00
112 2 1.3620984113530000e+01 1.3146270707450000e+01 6.5463745696159998e+00
113 2 1.5181872250430001e+01 1.6174114937430002e+01 4.9375748582019998e+00
114 2 1.4569232492010000e+01 1.6323318824190001e+00 3.4011524430339999e+00
115 2 9.6804698197479997e+00 7.3448599907040002e+00 1.1984185359840000e+01
116 2 1.0452541122570000e+01 9.3959129513040001e+00 1.2826063251510000e+01
117 2 1.0171198390800001e+01 3.2915288165660000e-02 9.4319413186349994e+00
118 2 1.1016395832450000e+01 1.4100821936479999e+00 1.1111947853369999e+01
119 2 4.1675062191630001e+00 1.3834061164789999e+00 1.2592163488500001e+01
120 2 3.7929263095589998e+00 3.1890003215579998e+00 1.4079359678550000e+01
121 2 8.6270805676390001e+00 4.4332740768359997e+00 6.6368385747250001e+00
122 2 1.0209744266480000e+01 2.9253866841649998e+00 5.8129094243630002e+00
123 2 1.4021275998300000e+01 8.3539931767350009e+00 1.2013415890400001e+00
124 2 1.3999246074089999e+01 6.6844776099610002e+00 1.5787412759600000e+01
125 2 6.2770725104920002e+00 2.3964831601320000e+00 9.6366735622200004e+00
126 2 6.3262265583830004e+00 3.8125560695870000e+00 1.1517742372880001e+01
127 2 1.2300941190440000e+01 1.3692056274320000e+01 1.0516014085669999e+01
128 2 1.2639931646630000e+01 1.2374996047180000e+01 1.2484191863960000e+01
129 2 1.2766181631840000e+01 4.5697281840830000e+00 1.1623038308860000e+01
130 2 1.2010533076120000e+01 4.0838912171940001e+00 1.3802544917890000e+01
131 2 2.4718463320030000e+00 6.2270372117199999e+00 3.7656653316859998e+00
132 2 5.1274733751339996e-01 6.8590837189679998e+00 4.8428168739149999e+00
133 2 1.0159805720560000e+01 1.3891302418700000e+01 3.8299471375779999e+00
134 2 1.0803954072030001e+01 1.1624068090690001e+01 3.8126181564340000e+00
135 2 1.3056801255730000e+00 3.6481692663219998e+00 5.1632466129249996e+00
136 2 1.0278804593160000e+00 2.4197155623220001e+00 3.2215607172429999e+00
137 2 5.7129137440599997e-01 5.7482709212809999e-02 8.2201196171750002e-01
138 2 1.3478627896540001e+00 1.5525544989960001e+00 1.5315320599470001e+01
139 2 5.6238568557440001e+00 1.2161102052029999e+01 9.9169320743200000e+00
140 2 5.1903461670619997e+00 1.3416410960160000e+01 1.1877723850190000e+01
141 2 7.5699423521389997e-01 1.3689944792650000e+01 6.1286621967250001e+00
142 2 1.5413480041340000e+01 1.3136359586859999e+01 4.4486930432209997e+00
143 2 1.0642835596579999e+01 1.0961775491599999e+01 1.5906754552450000e+01
144 2 9.2051723508250003e+00 9.3768034362100003e+00 7.3368619995579998e-01
145 2 7.7930222176179997e+00 1.1478036014880000e+00 1.2953806463299999e+01
146 2 8.6126664988439998e+00 3.7488527641149999e-01 1.4992184910940001e+01
147 2 1.1889779763980000e+01 1.3448728615549999e+01 5.8761233949809999e-01
148 2 1.3639601037460000e+01 1.4814621032740000e+01 1.3462778108400000e+00
149 2 1.6810406461109999e+00 1.3024755948999999e+01 1.2227968889220000e+01
150 2 1.3918100431520000e+00 1.5178225699320000e+01 1.1269636623960000e+01
151 2 5.2828821317700003e-01 7.5187246444579996e+00 1.1715231637970000e+01
152 2 7.2317063025480000e-01 5.3885326258640003e+00 1.2619196161580000e+01
153 2 8.2769195670840006e+00 9.4047373867370005e+00 3.9940378715120000e+00
154 2 1.0147847166869999e+01 7.9966565273420001e+00 3.9008122500720002e+00
155 2 1.0401412407170000e+01 7.6571629204320002e-01 2.8133837089220002e+00
156 2 8.0416635299809993e+00 7.4565706073570004e-01 2.8921162578040001e+00
157 2 1.5709874959990000e+01 3.5677070222870002e+00 1.0030684031270000e-01
158 2 1.5505885290169999e+01 4.8393312657649998e+00 2.0764878849969999e+00
159 2 9.2554958855479992e+00 1.3253095284920001e+01 1.3518827069089999e+01
160 2 7.4870974537430000e+00 1.2051379292569999e+01 1.4530906995950000e+01
161 2 1.1909748444990001e+01 6.2687056293759993e-02 6.0527039851269997e+00
162 2 9.8280133625210002e+00 1.5340093781180000e+01 6.7415491046620000e+00
163 2 1.4810666583590001e+01 1.5575394150139999e+01 1.1990275654110000e+01
164 2 1.4180616237820001e+01 1.5930835021460000e+01 1.4202976728219999e+01
165 2 1.6053564403919999e+01 1.0248500691720000e+01 1.3574580864700000e+01
166 2 1.4567696788250000e+01 8.4783800660019999e+00 1.3930563637650000e+01
167 2 3.3805088805949999e+00 1.3951996475130001e+01 8.2763541290320006e+00
168 2 5.0475229878430001e+00 1.3238309567880000e+01 6.7735450892519999e+00
169 2 6.7914305331430000e+00 6.5688819048960001e+00 2.1341209247810000e+00
170 2 6.0137098731089997e+00 8.1780019171470002e+00 6.0255681009700002e-01
171 2 1.3823894691890001e+01 2.8103795365400002e+00 6.2614176268390001e+00
172 2 1.2840891743589999e+01 3.3338232946640001e+00 8.3345094687010004e+00
173 2 1.3748915369620001e+01 7.5378823992640003e+00 8.9969285337279992e+00
174 2 1.4846192157810000e+01 5.5728298414199999e+00 9.6918567543890006e+00
175 2 3.4170175502550002e+00 1.0807690014400000e+01 7.8217050561830002e+00
176 2 4.2924404696679996e+00 8.6802544765119993e+00 7.3035915369430002e+00
177 2 1.3771920304769999e+01 1.1269261424140000e+01 1.5821701672510000e+00
178 2 1.5987163954510001e+01 1.0704370275880001e+01 1.3475326627290001e+00
179 2 1.4209328617310000e+01 8.6189157469229993e+00 6.2553498790950002e+00
180 2 1.5058258602090000e+01 9.8884297980210007e+00 4.5025753567800004e+00
181 2 8.2240913705289997e-01 1.0258838586600000e+01 9.6862691786559996e+00
182 2 1.6152288812929999e+01 1.0785061805460000e+01 7.5031176050199999e+00
183 2 1.5665918742340001e+01 1.4449296952359999e+01 8.8449012518890004e+00
184 2 1.3601521475489999e+01 1.5525232883390000e+01 9.1098000912230006e+00
185 2 5.3832908322859998e+00 5.8523003476559996e+00 5.7868167007000002e+00
186 2 6.9546755846480002e+00 7.6155133734060003e+00 5.8353186382419997e+00
187 2 4.3767926844230001e+00 2.8007567789290002e+00 4.5576258890619998e+00
188 2 5.6173827876209996e+00 3.1129145439550001e+00 6.6054381555869996e+00
189 2 5.4391402007260004e+00 1.1467380553680000e+01 4.2205640343299997e+00
190 2 7.0645493256450003e+00 1.1981452807009999e+01 2.6099441491430002e+00
191 2 1.0660456245990000e+01 6.1084446945439996e+00 1.6083138084849999e+01
192 2 8.5940770147690007e+00 6.3009969486659996e+00 1.4951816092460000e+01

Velocities

1 -1.0981503899000000e+00 -1.7110850064180001e+00 4.1527959518599999e+00
2 9.6080536122730003e+00 3.3210073749590001e+00 1.2317683015330001e+00
3 1.2910016031480001e+00 -4.3913296301159999e-01 7.3457796246399996e+00
4 -2.4712110704470001e+00 -8.1525609077500008e+00 7.3172706931600002e+00
5 -2.5911790004079999e-01 9.9614395224279995e-01 2.8386403655589998e+00
6 5.5337108437630000e+00 -5.7537528982639996e+00 -7.4581075553450005e-01
7 9.4103141879910002e+00 -8.3018944753669999e+00 -1.3800976030289999e-01
8 2.3935155800030001e+00 -2.9498018661929999e+00 3.7763413003299999e+00
9 -2.7406548053980000e+00 -1.7437577026769999e+00 -3.5045690492269999e+00
10 -2.7306592183810001e+00 2.8101585096510000e+00 2.8001528504649997e-01
11 4.5622358716790004e+00 -2.2757022577130002e+00 4.0817670928939997e-01
12 -5.9186540572260000e+00 3.9606817505440000e+00 -1.8063404956730000e+00
13 -8.6626485787899998e+00 -3.1862881219360002e+00 -5.2640686270490002e+00
14 4.3060335897800002e+00 -6.7689230586339999e+00 3.4333105598870000e+00
15 -7.7118931274160003e+00 -4.9191180885170001e+00 -6.4866482719040004e+00
16 -1.2777430863999999e+01 -7.4941564443150002e+00 5.3820797929789999e+00
17 -1.8130428869300000e-01 -2.5857270381589998e+00 -3.0714442885600002e-01
18 9.3601221791920004e+00 -7.6935057147819998e+00 -5.5303508514509998e+00
19 2.6113302830429999e+00 -4.5360762675780002e+00 1.1353009117799999e+01
20 1.4862164834330001e+00 1.1680822872509999e+01 -1.4650381159990000e-01
21 2.1036233710659999e+00 -7.5421604284710000e+00 8.8090538943549994e+00
22 4.7870187679310003e+00 -1.7528236889840001e+00 -1.1764149931000001e+00
23 7.3647404865160002e+00 5.1182564064529998e+00 -1.8940551668399999e-01
24 1.0547220405260000e+00 6.6738540599869998e+00 -1.0346422391410000e+00
25 2.3029136595859998e+00 -3.3479931245889998e+00 2.4414046783329999e+00
26 3.1358818686290002e-01 3.0809146919539998e+00 2.3725805088260001e+00
27 7.2853468866749997e+00 2.4768326620710002e+00 2.8388543663529999e+00
28 -2.6967622274969999e-01 -1.2654818914020000e+01 -4.3676493192799999e+00
29 1.5041094689550001e+00 3.4515840200399999e+00 -1.8317646586180001e+00
30 -3.9563702096019998e-01 -5.4226234765959997e+00 -3.9343681407590001e+00
31 1.9983952058890000e+00 -7.0585543526399999e+00 -1.1631301949790001e+00
32 -5.1497579125249997e+00 5.4514581927919998e+00 -3.3473907049189999e+00
33 -3.4776280175709999e+00 -7.1216652915940004e-01 2.1454930023720001e-01
34 8.0634764637199996e-01 4.9671606995089999e+00 -3.3731640968970000e-01
35 -7.5940755454989999e+00 1.0084201011070000e+01 -4.2920103347350000e+00
36 -5.3031001326810001e-01 -1.6892741485450000e+00 7.0542919926319998e+00
37 2.4379437126960002e+00 2.3359128086309999e-01 -1.8857996402760000e+00
38 -4.2936607235249999e+00 -1.1716212626189999e+00 -4.1746821277050001e+00
39 1.6580578859830000e+00 -6.0122993424290003e+00 -4.1053083079950001e+00
40 8.9944024790110000e-01 9.8222800048780001e-01 -1.0672974320649999e+00
41 1.5301312403730001e+00 -3.8155304411989999e+00 -5.8835845643709996e+00
42 2.7862338332330001e+00 -1.7518413143180001e+00 3.7033940610639999e+00
43 7.4075394819170004e+00 -6.0605530838900004e+00 1.3764159654210000e+00
44 5.2669171324319999e+00 -8.3887207786500007e+00 8.8416807583730002e+00
45 1.9770481963130000e+00 5.9253544931719997e+00 -1.0049191528500000e+01
46 2.1533441925400001e+00 4.3858664162869996e+00 -3.0478572469840000e+00
47 -3.1670441626280001e+00 4.5971231428800001e+00 -3.8373199027439999e+00
48 -1.6247711033679999e+00 -4.5844615184949999e-01 -1.5673009374439999e+00
49 3.0029625994120002e+00 -8.2572196535250004e+00 -2.3087384096929999e+00
50 -9.9119269927389997e+00 1.7118917422770000e-01 8.1816084923900001e-01
51 3.2231248391870002e+00 3.5773617426620001e+00 5.5329691745409999e+00
52 7.7676921815100002e+00 3.5748199219760002e-01 -8.0123496713439994e+00
53 -3.4025506089449999e+00 -4.7060610792639999e+00 1.7112162410270000e+00
54 7.3958357399979997e+00 -4.6970574984719997e+00 -6.2466283063960004e+00
55 -5.2743680245500002e+00 1.1370207521610000e+01 2.1708740373710000e+00
56 1.2759214615140000e+00 2.0083879725070002e+00 3.1039086517690002e+00
57 1.2009399653739999e-01 4.8673669495220002e+00 -5.4160649944549999e-01
58 7.3833154865159996e+00 1.5045108004970001e-01 4.5830290532340001e+00
59 7.7062067887289998e-01 4.9776688372740002e-01 -3.2991171160019999e+00
60 -1.6790692763830001e-01 4.1620235068189997e+00 -7.0119125758379997e-01
61 -1.0182806820600001e+00 -5.6011796823570004e+00 3.4195121810220002e+00
62 2.9473142516089998e+00 -1.0598136821440001e+00 3.8769173818890001e+00
63 6.0223001846399997e+00 1.5422626034900000e+00 -2.6358097258660002e-01
64 1.7413403157320000e+00 -2.3567023135420002e+00 -2.2108332542550002e+00
65 -1.7103883496460000e+00 -5.4077240962320001e+00 -6.8682484155639996e+00
66 -4.4117333260370000e+00 2.5152723180760002e+00 2.9933293505559999e+00
67 2.4979015919370000e+00 -3.6515374812610002e+00 3.5597752468200001e+00
68 -3.2827459228490001e+00 -1.4526229444520000e+00 -4.2881198065469999e+00
69 -5.9616996617169997e+00 6.5271359269689997e+00 3.2151801451800002e+00
70 -1.7445772091930001e+00 4.4721463054950004e+00 -2.9372726379529999e+00
71 1.9009649625959999e+00 -2.8881941140289999e+00 -1.4881144907920001e+00
72 -4.6231182237509998e+00 -3.4602248131770001e+00 1.7184112627040000e+00
73 -3.3624094573440000e+00 -2.7196500751319999e+00 -5.3980207364190003e+00
74 1.5947643171979999e+00 5.8144504904940000e+00 -4.8961324817760001e+00
75 4.9388420469970002e+00 -6.1702900778560004e+00 -1.1910380983080000e+00
76 -4.2502428632509996e+00 2.8290069026030000e+00 -1.8567193571280001e+00
77 3.4597576296860000e+00 -3.3997393879859999e-01 -2.8378595591789999e+00
78 2.0975175637849999e+00 3.7179000039579999e+00 -5.7931596064050002e+00
79 2.9835734059000001e+00 8.0052568478519992e-03 -3.3985957442500001e+00
80 -2.4738953253939999e+00 -5.5051495208409995e-01 1.8622718311910000e+00
81 3.0190356536900000e+00 -2.3781646103799998e+00 3.8766706162170000e-01
82 3.7546968602880000e+00 -2.7750458796930002e+00 -1.1085892360250000e+00
83 2.1212309930919999e+00 6.8007439087660000e+00 3.4274101045470001e-01
84 -8.7858981854509999e-01 -6.9182678961089996e+00 2.9818087915480000e+00
85 -6.6642343964809996e+00 -5.1308317545500000e+00 1.0961971905230000e+01
86 -5.9886478769770002e-01 6.8770975482520003e+00 -7.7162232150980001e+00
87 -1.0771635189500000e+01 -4.9006003531760003e+00 -1.0272804701839999e+00
88 -4.5312190401040002e+00 -3.9940691524749998e+00 1.0015043741840000e+00
89 -1.0615833750200001e+00 1.0977036365799999e+00 -2.7449199714630002e-01
90 9.1029954859750006e+00 1.8167095004339999e+00 2.3259554876289998e+00
91 -3.2790796214200002e+00 -4.4835241696860004e+00 -1.7942372996600000e+00
92 -3.0907798757870002e+00 4.2445466399790001e-02 1.2529689587290000e+00
93 4.8903579298260000e+00 -2.8319848871550000e+00 -1.9953568805790001e+00
94 -8.0044698738199997e+00 4.4961475921760004e+00 -6.0496354890050004e+00
95 4.6269362261970004e+00 3.0347845412119998e+00 6.3194530187420002e+00
96 -1.3272514581379999e+00 -7.3722117267830001e+00 -2.1500769630090000e+00
97 5.9073439900379998e-01 5.5145638037940004e-01 -4.0624984009369998e+00
98 3.8700181683650001e+00 2.8870450012819999e+00 -1.1200909042470000e+00
99 -8.8320369309720004e-01 -2.5734288077970002e-01 3.5823436562250000e+00
100 5.9126538217970004e-01 5.4730523838070004e+00 -8.6826619298379999e+00
101 -4.0416837909269998e-01 1.5387829499620001e-01 1.6235921989850000e+00
102 3.4621862881120000e+00 4.4722006247039996e+00 -1.0287191530849999e+00
103 -3.1328989427609999e-01 -1.8877602246500000e+00 1.8092635245460000e+00
104 6.8708144835180001e+00 -3.5676517002220001e+00 2.0522089654569999e+00
105 9.3812187658040003e-01 3.5560961082699998e+00 -2.4268532753000001e+00
106 -3.1687962699040000e+00 1.7659249170519999e+00 7.8933919295949995e-01
107 -2.9113745627339999e-01 -1.6324745390359999e-01 -3.7969909835659998e+00
108 -2.2851581034419999e+00 1.6844531451920000e+00 2.2755619410310000e+00
109 -8.1359174327140007e+00 -2.4916127904050001e+00 -4.4671355201099999e-01
110 4.4596739928020002e+00 1.9865148504870001e+00 3.4355191194939998e+00
111 3.5925888399349999e+00 -3.2820542114309998e+00 7.0617181357160002e+00
112 -2.4538782613390001e-01 -4.0512858923320000e-01 -4.1104936869579998e+00
113 7.3266929942019998e-01 -5.8492480515900003e-01 4.6511825210150004e+00
114 6.0903299375719998e-02 5.0257652582989998e+00 3.4303741542510000e+00
115 -5.3889031755310004e+00 -1.4056463519089999e+00 -1.4064909046050000e+00
116 -3.7654651745910002e+00 8.7060115231489998e+00 1.3284020293670000e+00
117 5.9633084006569996e+00 -5.1584139654380001e-01 1.4229699480480000e+00
118 1.8436347058170000e+00 1.3722565463780001e+00 3.9887741644440000e-01
119 -3.0923587938970001e+00 -2.2308731417279999e+00 5.5495056521730000e+00
120 4.9592477561889998e+00 -5.0829056485510005e-01 9.4735582388670003e-01
121 -6.2185106938079997e+00 -6.8902094848950002e+00 4.9444415828450001e+00
122 -2.6028910924309998e+00 -2.0132649603960000e+00 -8.2897437888119996e-01
123 -1.4336085269650001e+00 -2.3216443834009999e+00 -1.7452791645510000e+00
124 -5.1306348596879996e+00 -3.5580799298689998e+00 4.8400821411710000e+00
125 -4.5675340410149996e+00 -1.6182838789389999e+00 -9.5225788868060002e-01
126 2.3786198276250001e+00 -3.3010835013310000e+00 1.9740144462910000e-02
127 6.6182747065300003e+00 1.0517030643060001e-01 2.7122370237440001e+00
128 -1.6060119891219999e+00 -4.3107240713060002e-01 -2.9381388686290000e-01
129 8.9027908127029998e-01 2.2187480510520001e+00 8.2647379080130001e-01
130 -3.1084399133630001e+00 5.1530390169700002e+00 -2.2763363799750000e-01
131 8.1511778875759999e-02 3.7395376110030001e+00 2.1172177950780000e+00
132 4.5734047136690004e+00 1.3120818991020000e+00 1.3815381610749999e+00
133 6.7107270922829998e-01 8.3467633475429999e+00 1.8900167722879999e+00
134 -1.0160769988609999e+00 1.0691624393240000e+00 2.4580727549089998e+00
135 2.0421534798090000e+00 -8.8860989788959999e-01 1.4082978827079999e+00
136 -6.8619082219210004e+00 -3.7867030880650000e-02 2.3399138057430000e+00
137 -3.1939530586429998e+00 -2.3493123649920000e+00 -6.8164955382549997e-01
138 -5.8738165925479997e+00 -3.8205189391709999e+00 2.2787756048440002e+00
139 7.7533182475200002e+00 3.5329862382410000e+00 7.5242696977229997e+00
140 -9.2970264638739994e+00 5.8292705711159999e-02 -5.3394725923050004e+00
141 -4.0695761278270002e+00 6.6325005668830004e+00 4.6066874611250004e+00
142 -1.1398728488730001e+00 1.1388294298670001e+00 -3.0728868889740002e+00
143 5.7976033406900003e+00 2.7075744120550000e+00 2.5365131551040001e+00
144 3.0114580815349998e+00 -3.9983083954910001e+00 -8.4915275099380005e-01
145 1.4716050453839999e+00 4.5589556712520002e-01 -2.7063063544740000e+00
146 -4.4496818725529996e+00 3.5577092091479998e+00 4.7862928968430003e+00
147 1.6255129950770000e+00 -3.2599589621330001e+00 -2.0874647651760001e+00
148 -2.0382064716990000e+00 1.2000830120199999e+00 5.5999301559339996e+00
149 -2.9734276637080002e+00 1.6397323363309999e+00 5.6084553966140005e-01
150 1.4797561010160001e+00 2.9682415362860000e+00 -1.4825137646780000e+00
151 5.2730782270410004e-01 -1.5308735812220001e-01 -9.0255157495689997e-01
152 -7.8613858392550000e+00 8.6181892262979998e-01 4.7376670322540004e+00
153 -9.4567663692489994e+00 5.6750046613399996e-01 6.3419526379150000e+00
154 3.1573989398940001e+00 8.5930200984740002e-01 -2.6315194169820000e+00
155 -1.5217116092559999e+00 5.8124890896049997e-01 -1.7136276234920000e-01
156 -5.5235433748479998e+00 -6.4752043977299998e+00 1.7008912978970001e+00
157 3.6304168621619998e-01 2.0987032476919998e+00 -1.0088687071389999e+00
158 2.7409250194279999e+00 8.0842020473199998e+00 -2.9551221121500002e+00
159 9.0912858934880003e-01 -2.8876523159400000e+00 -8.1520538089999999e+00
160 -3.9750273716489999e+00 1.6019003343939999e+00 -9.2564787930150005e-01
161 5.9771065838049999e+00 3.6694539069370000e+00 1.3296566447639999e-01
162 -1.9605728151980000e+00 2.9776632225099999e+00 7.0786413286850003e+00
163 2.7060251978249998e+00 1.4750780102350001e+00 -1.5173298479370001e+00
164 4.3982331597330004e+00 2.6161823947960001e+00 -6.0915112874709996e+00
165 9.3118622808359997e-01 7.8703335311259996e+00 -6.6080127114560003e+00
166 4.4852089748269997e+00 2.5691433501700001e+00 -1.0441272806610000e+01
167 -5.6741560799060000e+00 3.8361264972460001e+00 -8.3904903763909999e-01
168 3.4795337561480002e+00 1.0726832298840000e+01 -2.2143907727080001e+00
169 -2.3143426541639998e-02 -3.9206250397950000e+00 9.0893459082719996e+00
170 3.2282983183099998e+00 -4.3334869113760002e+00 -1.8110316069110000e+00
171 4.2765807037199997e+00 1.5271103829429999e+00 4.0157790149370003e+00
172 3.1280071801960001e+00 -3.4447652319650000e+00 6.6742721615260003e-01
173 2.7224160289119999e+00 -1.1451855413120000e+00 5.5136285579570004e+00
174 -8.7350446522690000e+00 7.8040290975990001e-01 -4.4799308511130000e+00
175 2.1732535226760000e-01 -3.1720058513440001e+00 -1.0069868876010000e+00
176 3.3120567136729999e+00 -5.8929474884190003e-01 -4.1742688506840002e+00
177 2.0361526547639999e+00 1.1835238735430000e+00 -4.1861237751860001e+00
178 -3.5132038705820001e+00 -3.1014251488969999e+00 6.2530131789769996e+00
179 5.1547424362549998e+00 -2.8082340552970000e+00 -4.0745723804139997e+00
180 3.2690069757029998e+00 7.8208971173179997e-01 5.1661140128519998e+00
181 -2.6817917911130000e+00 4.9370511784530002e+00 -1.4303056633969999e+00
182 2.3809569295010000e+00 -3.2396116069340000e+00 -6.8119744708649996e+00
183 -4.6012773063269998e+00 1.9454059247600000e+00 -1.9792531563450000e+00
184 -2.8146630252230000e+00 9.9211451514500004e-01 3.3259701160529997e-01
185 -4.0261047160140002e+00 -4.4740738493630000e-01 4.3502221567169999e+00
186 -5.9252085430479999e+00 -6.1706401605399996e+00 -3.0369516284150002e+00
187 1.0428853342880000e+00 3.0038069023629999e+00 -5.3573803131869999e+00
188 -6.0415248147730003e-03 3.9295116685739999e+00 -4.9573281530250002e+00
189 1.7899730029380001e+00 -1.2953738238940000e+00 7.3002394538060000e-01
190 -2.1373215411820001e+00 -2.6011447713679998e+00 -1.7412076008520001e+00
191 1.9268285574330000e+00 -2.5813941316040001e+00 2.1914796800469998e+00
192 5.7759079382470002e+00 5.1789049125329996e+00 5.3231949381339998e+00
