LAMMPS data file extracted from NVT dump, timestep 1400000, units metal

192 atoms
2 atom types

0.0000000000000000e+00 1.6195563468200000e+01 xlo xhi
0.0000000000000000e+00 1.6195563468200000e+01 ylo yhi
0.0000000000000000e+00 1.6195563468200000e+01 zlo zhi

Masses

1 12.00000000
2 16.00000000

Atoms # atomic

1 1 9.4761159151750007e+00 1.2736945918789999e+01 6.5484535184619999e+00
2 1 7.5703445438439996e+00 7.4781355155340004e+00 2.2304077625479999e+00
3 1 2.9685881863449999e+00 1.0529579102330000e+00 6.6064832141899998e+00
4 1 1.0220314242760001e+01 5.4786529547070000e+00 3.8530016073089999e+00
5 1 9.1181503562999993e+00 1.0413573556439999e+01 3.3982949135599999e-01
6 1 6.6044058253719999e+00 8.5266022343079995e-01 1.3612293299910000e+01
7 1 1.5732396721680001e+01 9.4525428827740008e+00 1.3309759490870000e+01
8 1 1.4823350031750000e+01 1.5967949265150001e+01 7.3792212654410001e+00
9 1 1.3450493158530000e+01 1.2477176183210000e+01 8.7517520907850006e+00
10 1 4.6952343805640000e+00 1.5368856780140000e+01 1.0345194381220001e+01
11 1 3.8918355382540000e+00 6.2327638942270003e+00 1.2950150830430001e+00
12 1 2.5643344148240002e+00 9.9101606867750007e+00 2.9506448855139999e-01
13 1 1.5103877384580000e+00 3.5891507091400001e+00 9.4430401867589993e+00
14 1 1.3540141236869999e+01 1.0087059691600000e+00 1.0440726945120000e+01
15 1 1.4268446297080001e+01 4.2237312695620002e+00 1.4264361791390000e+01
16 1 8.1254183826500004e+00 7.2602758401380001e+00 1.4678729488249999e+01
17 1 4.7761470929290004e+00 5.0692812161449998e+00 4.8911841277799999e+00
18 1 4.3272242163490002e+00 7.1974664011179996e+00 9.5136243407850003e+00
19 1 1.1553486754510001e+01 4.0033268921919998e+00 9.0391566812949993e+00
20 1 1.5721508786690000e+01 8.3968157980170002e+00 9.7465433987480008e+00
21 1 6.6363339291989998e-01 6.2902709817459996e+00 1.6036923299409999e+01
22 1 1.0504356715749999e+01 1.4189769455100000e+01 1.1326070757920000e+01
23 1 2.7013572033580000e+00 1.3060377272889999e+01 8.1392307260490000e+00
24 1 3.6818937137819998e+00 7.4369050539849999e+00 1.3525006889340000e+01
25 1 8.6756729128169994e+00 9.9882496348390004e-01 9.5039752079779998e+00
26 1 8.2787632678469993e+00 4.7048247588230003e+00 8.0214955003469992e+00
27 1 5.6138482923220003e+00 3.6066924503119999e+00 9.5884526378419999e+00
28 1 8.1554552287100002e-01 1.4355684463039999e+01 4.3155433994220003e+00
29 1 2.7293797258370001e+00 3.5369235028260002e+00 -6.5057290085670003e-02
30 1 3.5267858261030001e+00 1.0461042410899999e+01 1.1685915667600000e+01
31 1 1.2287423907010000e+01 1.0062586151490001e+01 1.1376846347620001e+01
32 1 1.5981582460000000e+01 1.3229178541650001e+01 5.8257976086480001e-01
33 1 1.1059167208220000e+01 6.3816641217930004e+00 1.4704688905719999e+01
34 1 8.2043933140750003e+00 1.0924144818289999e+01 1.2080701047020000e+01
35 1 1.2310078603970000e+01 1.4837088281580000e+01 -2.0031442467620000e-01
36 1 4.6824794341749998e+00 1.5087713577090000e+01 4.2098480555100002e+00
37 1 8.0325686034880004e+00 4.3561795730390002e-01 1.3826405538630000e+00
38 1 1.1094002126119999e+01 2.6770725691699999e+00 1.7633422521549999e-01
39 1 9.8643203754450008e-03 3.8623231048709999e-01 1.4886589330950001e+01
40 1 1.4130663275490001e+01 1.2895680220390000e+01 1.3127764921560001e+01
41 1 2.2884106094350001e+00 1.3351788678820000e+01 1.3901757941870001e+01
42 1 1.1359879841890001e+01 9.3905024908179993e+00 4.1111214305099999e+00
43 1 9.6331813219519997e+00 9.6182338788430002e+00 7.9375125971839999e+00
44 1 8.7204625303069996e+00 1.3417610195649999e+01 3.1453218295149998e+00
45 1 3.9842320954639998e+00 4.5271573545610000e-01 1.6185066764009999e+01
46 1 1.0079760259850000e+01 2.3698610385499999e+00 1.2950140787130000e+01
47 1 2.1757413987140000e+00 1.1022712186590001e+01 4.6297030795250000e+00
48 1 1.1578835640619999e+01 1.5188632608650000e+01 7.1833160025499998e+00
49 1 1.3040022829240000e+01 1.0182787527060000e+01 1.6249934436109999e+01
50 1 3.8704257091380001e-01 2.0463916418790000e+00 3.6701346612579999e+00
51 1 1.3368338466399999e+01 1.2764675194230000e+01 4.0772682718439999e+00
52 1 1.1735688860950001e+01 2.0049469524840000e+00 4.1798740637620000e+00
53 1 5.9855003646940004e+00 1.3500155624970001e+01 1.4756584450989999e+01
54 1 9.4536362865759997e+00 7.2912988548689999e+00 1.0840697314350001e+01
55 1 6.8990429282859997e+00 1.2764360117819999e+00 5.6416878151240004e+00
56 1 7.0003691390269998e+00 4.1136990685510000e+00 7.4706982074660000e-01
57 1 1.5680931201290000e+00 7.3037625301810003e+00 6.2536638214069997e+00
58 1 6.4408218405350004e+00 1.1664323348160000e+01 8.3372996809849997e+00
59 1 1.9398294308490001e+00 3.1457706201120001e+00 1.3021000596770000e+01
60 1 6.3170098540839996e+00 9.1025880024389991e+00 5.4023281263299996e+00
61 1 3.0062963128379999e-01 1.4629976098320000e+01 1.0915893410520001e+01
62 1 1.5878195391880000e+01 8.5436611633880002e+00 3.3684949269860001e+00
63 1 5.3533219875690001e+00 1.2059711912330000e+01 2.0118792271619999e+00
64 1 1.2338987945670000e+01 7.3212181544890003e+00 6.9071653603899996e+00
65 2 8.4364328812529994e+00 1.3265426814180000e+01 6.7180406296150004e+00
66 2 1.0542607617140000e+01 1.2268465343130000e+01 6.3012094306939996e+00
67 2 7.7239937251370003e+00 7.4240943179599999e+00 3.4004633569750000e+00
68 2 7.3910253670759998e+00 7.5798548307850000e+00 1.0681568653789999e+00
69 2 2.3457355365649999e+00 1.9479381025100000e+00 6.1153833927739996e+00
70 2 3.5934818083160001e+00 2.5865399643609999e-01 7.1326619380549996e+00
71 2 9.5644235823660004e+00 4.8467708746609999e+00 4.5855939719589998e+00
72 2 1.0776291603570000e+01 6.2007200525839998e+00 3.0865998788600000e+00
73 2 9.0877713504590005e+00 1.1184463819139999e+01 1.5595736216590000e+01
74 2 9.1666260887019995e+00 9.8093332522080008e+00 1.3665571419700000e+00
75 2 6.2654894698029997e+00 8.4439515065830001e-02 1.2805698750540000e+01
76 2 7.0627051201360000e+00 1.6334813227859999e+00 1.4353188075020000e+01
77 2 -9.4739063230929996e-02 1.0511097081160001e+01 1.3010302469410000e+01
78 2 1.5423531717580000e+01 8.3583431506979995e+00 1.3613018210390001e+01
79 2 1.5475097238860000e+01 1.4949084035480000e+01 7.4916723953180000e+00
80 2 1.4226449443730001e+01 8.1650712007369997e-01 7.3437920427519998e+00
81 2 1.3984548266750000e+01 1.1447760939189999e+01 8.5151906621909994e+00
82 2 1.2961464936200001e+01 1.3480011779520000e+01 9.1020578058880002e+00
83 2 4.0797293396490000e+00 1.0995801762840000e-01 1.0060648555409999e+01
84 2 5.2530332635869996e+00 1.4423912730810001e+01 1.0735290286090001e+01
85 2 3.4716867573560002e+00 6.4636120431139998e+00 2.3546015582540001e+00
86 2 4.3625206881020002e+00 5.9784405729729997e+00 2.5149206903130000e-01
87 2 3.5052766399399999e+00 9.3993502363840005e+00 8.0242433601899998e-01
88 2 1.6139977770230001e+00 1.0294601924980000e+01 1.5924499331110001e+01
89 2 2.1156629350100000e+00 2.6692763064450000e+00 9.0437288801789997e+00
90 2 9.3869172902910003e-01 4.5009540424800001e+00 9.8877291145370005e+00
91 2 1.2867367231670000e+01 1.9390336749149999e+00 1.0596623391100000e+01
92 2 1.4123783306829999e+01 -3.2419625333140002e-02 1.0354638954320000e+01
93 2 1.4235540913419999e+01 3.1708420123479999e+00 1.4709779676509999e+01
94 2 1.4220957178860001e+01 5.2758458431350004e+00 1.3752263312989999e+01
95 2 8.3822883343800001e+00 8.3894642392410006e+00 1.4677571970790000e+01
96 2 7.9755298191480000e+00 6.1205068590340002e+00 1.4662883919750000e+01
97 2 3.8524391255660002e+00 5.1721895017269999e+00 5.6647688345480001e+00
98 2 5.7111929646060000e+00 4.9025669893370001e+00 4.1803723991449999e+00
99 2 3.7811341073290001e+00 6.1473400119910000e+00 9.6713651542390000e+00
100 2 4.8383718380009997e+00 8.2462296164609992e+00 9.3611877623070008e+00
101 2 1.1436601597330000e+01 4.5543464858920002e+00 1.0044976410220000e+01
102 2 1.1689788331510000e+01 3.3887043403880002e+00 8.0364020851420008e+00
103 2 1.5168199114360000e+01 7.4347311926880000e+00 9.3696682924010002e+00
104 2 5.0422991711870001e-02 9.3631043634739992e+00 1.0155884503190000e+01
105 2 1.5174308150510001e+00 7.0773212866939996e+00 1.5980791984550001e+01
106 2 1.6051204628760001e+01 5.4560847238120003e+00 -1.1814610944020000e-01
107 2 1.1382836701950000e+01 1.4356468683619999e+01 1.2056229713430000e+01
108 2 9.6124530119039999e+00 1.4063190800470000e+01 1.0604941479670000e+01
109 2 2.2545985294170001e+00 1.2312040887149999e+01 7.3758498891519997e+00
110 2 3.1408912451269999e+00 1.3736348104359999e+01 8.9884064705680000e+00
111 2 4.2569040934000002e+00 8.3376839683689994e+00 1.4098168573320001e+01
112 2 3.0235847471480000e+00 6.5680746567290003e+00 1.3057943609280001e+01
113 2 9.4286213295160000e+00 1.7676355538770001e+00 9.8974917263660007e+00
114 2 7.8774238631450002e+00 2.5161294661259997e-01 9.0977023660559997e+00
115 2 8.0368297608620001e+00 5.8442812675500004e+00 8.1673073918379995e+00
116 2 8.4751437515789991e+00 3.5240045402170002e+00 7.8005494110300004e+00
117 2 6.1659372984000003e+00 3.5195474350480001e+00 1.0632123937090000e+01
118 2 5.0784034185550002e+00 3.5811220541719999e+00 8.5721250437319991e+00
119 2 1.8153229544230001e+00 1.4403860170610001e+01 4.9489263739900000e+00
120 2 1.6018671436249999e+01 1.4397050286580001e+01 3.7095914822620002e+00
121 2 3.4554091959740001e+00 3.3952808029739998e+00 1.5244833040380000e+01
122 2 2.0752088073229999e+00 3.8007354141260001e+00 8.5370319076250001e-01
123 2 2.5007660818969999e+00 9.8529097149520002e+00 1.1826179045320000e+01
124 2 4.4238559391930004e+00 1.1195828586099999e+01 1.1577597892700000e+01
125 2 1.1747578862630000e+01 1.1068222667830000e+01 1.1065517805640001e+01
126 2 1.2828020432570000e+01 9.0143751292130005e+00 1.1562122766280000e+01
127 2 1.5430653253739999e+01 1.3810946137800000e+01 1.5876826346010001e+01
128 2 3.9071107425960000e-01 1.2674380214939999e+01 1.4402939234040000e+00
129 2 1.1245492446360000e+01 6.4126949854430002e+00 1.3554611653889999e+01
130 2 1.0833919355440001e+01 6.4114496590350001e+00 1.5881196911340000e+01
131 2 9.1157302727040008e+00 1.1589551388369999e+01 1.2456326179990000e+01
132 2 7.2184611588310004e+00 1.0323166832089999e+01 1.1904577445819999e+01
133 2 1.2446702545979999e+01 1.6022714840910002e+01 1.6006918054610001e+01
134 2 1.2131750757000001e+01 1.3684597934610000e+01 -1.9463261950340000e-01
135 2 5.1761841913450004e+00 1.4026202753840000e+01 4.2461471136529996e+00
136 2 4.1827569865219996e+00 -8.0076055079530001e-02 4.2201939693880002e+00
137 2 8.5850102719559995e+00 1.5849908006820000e+01 7.1255541916389997e-01
138 2 7.3540209062519999e+00 1.2197543358330001e+00 1.9656543189269999e+00
139 2 1.0570917305040000e+01 2.1369473654719999e+00 1.0737349744650000e+00
140 2 1.1480544951000001e+01 3.3322049706030001e+00 1.5471143401650000e+01
141 2 1.5084758780170000e+01 2.4271227846550000e-01 1.4608181936670000e+01
142 2 1.1080756904089999e+00 6.1869731888650004e-01 1.5155104583420000e+01
143 2 1.4685544329680001e+01 1.3902771256350000e+01 1.3015971635870001e+01
144 2 1.3542152438640001e+01 1.1897518310700001e+01 1.3287179239860000e+01
145 2 2.1048467527899999e+00 1.3397413996739999e+01 1.5043411765820000e+01
146 2 2.4259120942569998e+00 1.3350670643390000e+01 1.2748332224830000e+01
147 2 1.0508146050040001e+01 9.1669793029139992e+00 4.8855355563060003e+00
148 2 1.2149593026950001e+01 9.5143412858719998e+00 3.2547973420420000e+00
149 2 8.8535033469650006e+00 8.9534174362800005e+00 7.4254025838980002e+00
150 2 1.0455347497400000e+01 1.0309992818550000e+01 8.4315965514670008e+00
151 2 8.5661750257100007e+00 1.4495402978950001e+01 3.5549336494329999e+00
152 2 8.9037697463499992e+00 1.2319292071390000e+01 2.7972305768100001e+00
153 2 3.7353830132010000e+00 4.4823297950100000e-01 1.1387384701090000e+00
154 2 4.1593990226599997e+00 3.3171145836080002e-01 1.5013936513550000e+01
155 2 9.7918429092270003e+00 3.4725034836069999e+00 1.2665067387850000e+01
156 2 1.0286191283320001e+01 1.2538093254950000e+00 1.3130936322729999e+01
157 2 3.3365468095840001e+00 1.1249358504160000e+01 4.5676152837709996e+00
158 2 1.0313002939970000e+00 1.0950671165430000e+01 4.7701932612639997e+00
159 2 1.1017486661880000e+01 1.5926040297009999e+01 7.9452139894610001e+00
160 2 1.2071135191520000e+01 1.4559758433290000e+01 6.3754925230030004e+00
161 2 1.3971723504970001e+01 1.0627677915210000e+01 5.6818264918520001e-01
162 2 1.2099009215300001e+01 9.6456546820250004e+00 1.5703590865790000e+01
163 2 8.1486774359769998e-01 3.0943816117490002e+00 3.4764143034399999e+00
164 2 1.6223062856990001e+01 9.4319062253160002e-01 3.8850835478649999e+00
165 2 1.3340425804200001e+01 1.3538780586230001e+01 3.1765893072789999e+00
166 2 1.3368189629130001e+01 1.2021277986739999e+01 4.9907342732890001e+00
167 2 1.1540472956289999e+01 8.4302390578770003e-01 4.0774732844410000e+00
168 2 1.1955137185080000e+01 3.1283735289879999e+00 4.2927283465340000e+00
169 2 5.3479704407280000e+00 1.2559662312300000e+01 1.4539115992639999e+01
170 2 6.3285369389710002e+00 1.4579905976759999e+01 1.5033490114450000e+01
171 2 9.8549485200299998e+00 8.3860339506820001e+00 1.0893473265070000e+01
172 2 9.1635165715509999e+00 6.1503347657759999e+00 1.0730988823400001e+01
173 2 5.9686907508660001e+00 1.9661666507730000e+00 5.7481628059699998e+00
174 2 7.7370130253109997e+00 4.7507974268519998e-01 5.4208985756479997e+00
175 2 6.0234330729650001e+00 3.4999587408989998e+00 8.5417204562820004e-01
176 2 8.0620618846030005e+00 4.5935847681300004e+00 8.8518254703699994e-01
177 2 1.9419380565000000e+00 7.8667418775489999e+00 7.2203121485499997e+00
178 2 1.2619825529499999e+00 6.7961602100820002e+00 5.2264412642450004e+00
179 2 7.3086380107200002e+00 1.1615961732020001e+01 9.1442740997340000e+00
180 2 5.6284079905400004e+00 1.1810822533530001e+01 7.5004345591190003e+00
181 2 1.0737142980370000e+00 3.8932022374219999e+00 1.3379992802000000e+01
182 2 2.7374812847599999e+00 2.4319935162360000e+00 1.2627981469230001e+01
183 2 5.6583292728399996e+00 8.1394090422929999e+00 5.3903295810599996e+00
184 2 6.9828141238730002e+00 1.0108494223279999e+01 5.3494289726320003e+00
185 2 6.2493006934619999e-01 1.5678579682620001e+01 1.1338304568890001e+01
186 2 -2.3629716713590002e-02 1.3601463843530000e+01 1.0469137927449999e+01
187 2 1.5092211122280000e+01 8.4682275126939999e+00 4.2321960692329998e+00
188 2 4.7833422737310000e-01 8.5284881701730004e+00 2.4846540646899999e+00
189 2 6.2013527396530002e+00 1.1453506203420000e+01 2.5353240238349999e+00
190 2 4.5351098361400002e+00 1.2696572439420001e+01 1.4829851561100000e+00
191 2 1.3044708208290000e+01 7.9406167216980004e+00 6.1767543927580002e+00
192 2 1.1695263783540000e+01 6.6218953992499996e+00 7.5865131803540002e+00

Velocities

1 4.4726951483389996e+00 5.2232005194309998e+00 2.7950755841960002e+00
2 6.0169325849390001e+00 4.0823677579330004e+00 4.2976288479639999e+00
3 1.8244673708900001e+00 5.9442097448080000e-01 -1.5694102293570000e+00
4 -3.6087292598150000e-01 4.0766560594770002e-01 -5.0860619501360000e+00
5 -5.2794653504050002e+00 -5.5176852907049998e+00 -4.2245243745680003e+00
6 1.3593146902110000e+00 -1.8007887399570000e+00 2.1571204738910001e+00
7 2.2487118077289998e+00 5.9526677901129998e+00 -1.1382901186190001e+01
8 3.4636136278530000e-01 -4.5167679573379997e+00 1.4422638100550000e+00
9 -3.4775738757310002e+00 -1.1117296722929999e+00 1.6683056841320001e+00
10 5.7662564176149997e+00 2.7195603769510002e-01 -9.8803546084880001e-01
11 4.9322085504029998e+00 -1.6524537044680001e+00 -3.8129838822509998e+00
12 -1.7448341167120001e+00 5.3291292746419998e+00 -5.0773329381419998e+00
13 -9.6055990533799998e-02 -4.6019280881920004e+00 3.0054347775710002e+00
14 -6.7111613805909998e-01 -1.9385895100590000e+00 2.0905913521870001e-01
15 4.9721484349220004e+00 2.6106492969730000e+00 -1.4768893635260001e+00
16 9.8946078891019995e-01 -4.6500007544660003e+00 -2.1880060919080000e+00
17 -1.7908130148950001e+00 3.9000500670800000e+00 1.5577660878570001e+00
18 2.9143438123659999e+00 5.2297106314370003e+00 1.0889954195920000e+00
19 4.7310969281839999e+00 -3.0307761279709999e+00 6.2079147594080002e+00
20 2.5008012252910000e-01 -1.6394686128020000e+00 8.2485090842329996e+00
21 2.0050830241659998e+00 -1.3209375651969999e+00 -3.5069917691299999e+00
22 2.5719182275889998e+00 -3.7118906562429999e+00 1.3243696226249999e+00
23 5.5419998225239997e+00 -4.6648354591609997e-01 1.6845154502160000e+00
24 4.3240145577559996e+00 -1.0315944154929999e+00 6.1363541454019996e+00
25 -5.4453243240539999e+00 -3.1885302461929999e+00 4.6302377961029997e+00
26 2.4698590418170001e+00 3.1364300903910000e-02 1.2694336021730001e+01
27 4.0959860929209997e+00 7.1229897542689997e+00 3.4447381262330001e+00
28 -4.3147333854609998e-01 7.4136010629700000e-01 2.9543299811860000e+00
29 -1.6010653566619999e+00 1.1843480169930001e+00 -2.2453303256260000e+00
30 -7.9971287686710002e-01 -2.0500312492139998e+00 9.0491074705449996e+00
31 -3.5679087376799998e+00 8.4212989296449994e+00 7.8445662960069997e+00
32 1.9985708074869999e+00 -1.3992916607960000e+00 1.6833554862230000e+00
33 -3.4375641732020001e-01 -4.2996601594580000e+00 -2.8132000660770000e+00
34 9.2416933335329998e-01 -1.3180984681690000e+00 -2.4259890647510001e+00
35 1.6916086829679999e+00 2.2934468596620001e+00 -2.6777187950769998e+00
36 -3.2722840720269999e+00 5.9772947128920002e+00 1.8128924925509999e+00
37 -4.3099061459839998e+00 -9.4658088171449997e+00 3.7394061181130001e+00
38 -8.4192424426810000e+00 -8.4914730277690005e+00 -1.0116340408839999e+01
39 -1.4839043334399999e+00 -6.3285392877559996e+00 -9.5960087102860003e-01
40 -1.4374533084770000e+00 2.9797349484370002e+00 1.3382152095110000e+00
41 -2.2384179099010000e+00 -8.8519062246079994e+00 -2.8200787343839999e+00
42 -3.1706648305030001e+00 2.8612761179040000e+00 -5.5444091429739997e+00
43 -2.1952939454139999e+00 -8.6746626111790001e-02 1.7792588002730001e+00
44 -8.5533549559190003e-01 1.8003653301920000e+00 -4.8172003948239999e+00
45 -2.8452647279950001e+00 5.6327285926309996e+00 3.5965746269730001e+00
46 -1.1857485145640000e+01 -4.8632883819460000e+00 -4.6677037998040003e+00
47 9.3730063798050001e+00 -1.4176418865489999e+00 -6.5297699947919998e+00
48 -1.7515917408170001e+00 1.2612110160090000e+00 3.5062815895530002e+00
49 -5.4671896941290002e-02 2.8866009329570002e+00 3.8101938192859999e+00
50 -4.7405786848159996e+00 4.5349580319329998e+00 -5.1385225124290002e-01
51 1.7300103378320000e-01 -7.7380038148269996e+00 -4.2540966127050002e+00
52 4.6673293447219999e+00 4.8208064125980004e+00 2.7519186417179999e+00
53 9.0426269622080007e+00 7.0368247051879995e-01 2.5155714745050002e+00
54 3.0971687527110001e+00 -7.2812335162970001e+00 -1.2803585225500000e+00
55 4.5436350469150000e-01 3.2457735766529998e+00 5.9046986755289996e+00
56 5.8126647875390003e-01 -1.0770401327650001e+00 4.2933756096220002e+00
57 -3.9184983948419999e-01 5.9026890138279997e+00 -9.1942378701370000e+00
58 -3.1387612853119999e+00 3.0460712045929998e+00 -1.5256596279520001e+00
59 -2.9053854371760002e+00 1.3891056280670000e+00 -5.2326109911160001e+00
60 -8.4825126013910008e+00 -2.2412906443249998e+00 6.2462096470760002e+00
61 -1.2456772372080000e+01 -7.0599410695570004e+00 -3.8957147742050000e+00
62 -1.1225279774970000e+01 -1.8311544304470000e+00 -9.6915260405079995e-01
63 -8.0339837893220007e+00 3.2173769762749999e-01 2.2025012651010001e+00
64 5.3517452020379999e+00 -4.2628368075849998e+00 -2.0523801581469998e-02
65 -2.0613223452259999e+00 -3.2663202891709999e+00 5.6956806838279999e+00
66 3.2425262999390001e+00 -4.6648788436939999e+00 -1.5396532295020000e+00
67 -2.5817151303200001e+00 3.7717345003420002e+00 -6.8401769142289996e+00
68 3.5335689696960002e+00 -1.3130910107800000e+00 9.8724344764990002e-01
69 2.1111820547439999e+00 1.5755240096390000e+00 4.1311697513489998e+00
70 -3.2083560578519998e-01 -8.4781291133490000e-01 2.6725540552729998e+00
71 -4.3812471906499999e+00 -6.4834384862420000e+00 -5.0817951673119999e-01
72 1.9735462714800001e+00 6.2387784017939998e+00 -1.0684178853810000e+00
73 2.1184239066330002e+00 5.6866260460109996e-01 6.0558619878359997e-02
74 7.3975297603280001e+00 -3.0404233134220000e+00 6.2377430027870003e-02
75 -4.6529382831710002e+00 3.5772553372450000e+00 -2.8079083878250000e+00
76 1.7338336517299999e+00 -6.1934177567460003e+00 1.3373783721249999e-01
77 -5.3746371845910001e+00 1.2270629761900000e+00 5.9786441730689999e-01
78 -3.9974324124159999e+00 -2.8041974579360001e+00 -3.0786123567860000e+00
79 1.9882051174660000e+00 -3.4197346203290002e+00 -2.7197454856400000e-01
80 4.8997180159679998e-01 -1.5104393343130000e+00 -4.5939556779249999e+00
81 3.1009437905759998e+00 8.2950225472580001e+00 4.5214256157110000e-01
82 1.8040078381200000e+00 2.8240341607230000e+00 1.7785175239240001e+00
83 4.1072704341580000e+00 1.9852810679320001e+00 5.8711499084670002e+00
84 -2.6805759211029998e+00 4.8343349231280000e+00 1.9737298768639999e+00
85 1.2537817652270000e+00 -4.7393397052050004e+00 -4.8594766650969996e+00
86 -1.0257366855760000e+00 -7.2202118192929998e-01 3.4485269935209999e+00
87 -3.0365919800630001e+00 2.8897198830669999e+00 3.4765534403920002e+00
88 7.6518212202690004e+00 1.1060615382900001e+00 3.6309745833110001e+00
89 -5.1201853566690003e+00 -5.3453932687919998e+00 -4.0442389001980000e-01
90 2.0228939390949999e-01 4.1120686182190003e+00 -1.2348518277800000e+00
91 -9.8682873864830001e-01 -2.8817410506250001e+00 -1.7941522830540000e+00
92 3.9529581565459999e+00 -3.2185840878029999e+00 -5.6219235888580004e+00
93 -5.1186976776539996e+00 -1.9099581504190000e+00 -3.2680381981310003e-01
94 1.8190738954479999e+00 2.6311483226479998e-01 -5.2735856340089997e+00
95 1.5256522512780000e+00 -3.5878771983859998e+00 -1.1908004536410000e+00
96 5.8709156062760002e+00 -4.4684839167549999e+00 1.1388091034629999e+00
97 -3.7677834559079999e+00 2.9913733280570001e+00 -5.4616098202699996e+00
98 6.7979846146289997e+00 5.4480393848149999e-01 8.2769880390699999e+00
99 4.4127229492230002e+00 -3.3169045270690001e+00 4.0921930590150000e+00
100 -2.4004376693170002e+00 -8.9997185857080009e+00 3.5962963941339998e+00
101 1.6973411107780001e+00 -1.0217398795839999e+01 8.5017385167280002e-01
102 1.6127091231770001e+00 7.9633952103850003e+00 4.0145845094580004e+00
103 3.0563779550720001e+00 -1.5237830423380001e+00 5.9152950042469998e-01
104 3.2130295366760002e+00 8.1698618211959992e+00 5.9501646726409998e+00
105 2.9031658368179998e+00 1.4279294246490000e+00 2.7586483366440002e+00
106 8.5138178024810003e+00 5.1113148812459999e+00 -1.7456201999890000e+00
107 2.0858800426410000e+00 6.8549352754220001e+00 -1.6489450777070001e+00
108 7.1712019924500003e+00 4.1869017499849998e-01 -2.8275309333490002e+00
109 -9.2764119134309997e+00 5.3261745444580004e+00 2.8168332406520000e+00
110 1.1186433238219999e+00 -1.6947084693379999e+00 -1.2662477729170001e+00
111 1.1043552513590000e+00 4.0550762860929996e+00 4.2150343904290004e+00
112 -1.3106162058999999e+00 -3.2356716203300002e+00 1.3351043074130000e+00
113 -5.9633161414189995e-01 1.0034467914709999e+00 -7.3815123018429996e-01
114 1.1622953158570000e+00 -3.3544288712629999e+00 -1.2547259548080001e+00
115 -3.6803194729760003e-01 -3.3613718205640000e+00 8.1828822653470006e+00
116 7.9975984555230001e-02 7.6779604907939998e+00 1.0015753234239999e+00
117 5.1938234754549999e+00 1.9222942046550000e+00 2.4755362255139999e+00
118 -2.1245886018100002e+00 -3.5834854421009998e+00 -3.2718464513500001e-01
119 -2.4175093632359999e+00 -4.1916002770930003e+00 -2.3920874997289999e-02
120 -2.9763752391909999e+00 -5.7920120023850004e+00 -3.5744643002830001e+00
121 7.2172813893700001e+00 -2.4490518609779999e+00 3.0678846278319999e-01
122 -1.1151459443259999e+00 -1.7372039238910000e+00 -1.0850060472559999e+01
123 2.7161241696510001e+00 -4.3707692108719998e-01 -1.5846539422370001e+00
124 -3.2648385984780002e+00 1.9114328221979999e+00 1.3169363525660001e+00
125 -1.5448727676120000e+00 3.2391293538219998e+00 -9.3589473337409999e+00
126 -2.2164499105309998e+00 -4.1112978189770004e+00 -2.4119808946829999e+00
127 5.7522799520329997e+00 5.0639372712109996e+00 -1.5274919020669999e+00
128 4.8857468851309998e+00 1.6378447808570000e+00 -4.1179709375530003e+00
129 -4.6191807645339997e+00 1.1690334649420000e+00 -3.1082643798420002e+00
130 3.8007015913869999e+00 -6.6255782150579998e+00 -1.4679820278660001e+00
131 -1.5263241460050001e+00 1.6476985412280001e+00 -2.5569383926849998e-01
132 -1.3842296743310001e+00 -3.6180755721179998e+00 -2.1293406179579999e+00
133 -5.5321328714859996e+00 -1.2799163467579999e-01 7.8385442261360005e-01
134 -3.2814061053210000e+00 2.6085149847300002e+00 -7.0862544494680000e+00
135 1.7869873447030000e+00 -6.7480705565869998e+00 -4.3885696338209996e+00
136 -6.8348101005190003e+00 -1.0083588419109999e+00 -4.8670133596109997e+00
137 1.4712749091180000e-01 5.2666430023090003e+00 -1.3480492023040000e-01
138 -2.8215544910419998e+00 1.1020442613520001e+00 -1.0480200684480001e+00
139 4.9436957428049997e+00 -3.0714772353959998e+00 2.9953941691139998e+00
140 4.2650495219860002e-01 -4.3737882240110002e+00 -2.2431013446049999e+00
141 -1.9904858808370001e+00 5.2941239625740000e+00 1.3110112812640000e+00
142 -1.1250619062780001e+00 2.7354531131809998e+00 1.1244282159770000e+00
143 1.8221141944110000e+00 1.7261715812500000e+00 -1.2544521883719999e+00
144 -1.3227875261940001e+00 -5.1506088770120000e+00 4.6367710657250001e+00
145 2.8562291056059999e+00 2.0176103775769998e+00 5.7523223003270001e+00
146 1.5412908572270001e+00 -1.0750093743950000e-01 5.1539606647719998e+00
147 -1.1192206589089999e+00 1.8846884407000000e+00 -3.5094733743650002e+00
148 -2.8819459943090000e+00 -5.5530696610060000e+00 -2.9119282698390001e+00
149 -8.6325612076390001e-01 3.8024146926940001e+00 -1.2322375258000000e+00
150 -1.0476856582160000e+01 -8.7299898798890005e+00 3.2533297010219999e+00
151 1.2995791478620000e+00 3.0465639957319999e+00 1.6960293003389999e+00
152 3.5336800185030000e+00 1.5504821547330001e+00 2.0062904058230000e+00
153 4.1521460211140004e+00 -1.0642198484759999e+00 2.7717757862619998e+00
154 1.3763415662689999e+00 -5.5434397173549996e+00 4.1565992548199997e+00
155 -7.8424151951549996e+00 1.5011605596790001e+00 -1.4909783190710000e+00
156 1.6545144957210001e+00 1.1579678776580000e-01 -6.1492123378269996e+00
157 3.7023482179620002e+00 3.6765274427089998e+00 -1.8743036083119999e+00
158 4.4194347502440001e-02 7.1213087712519996e-01 -3.8927713420540000e+00
159 -3.4853367361059999e+00 5.7202498879840000e+00 2.6409795708520001e+00
160 2.7962764809760001e+00 -1.8899269153580001e+00 -5.2424037912839996e+00
161 6.1164959155139997e-01 5.8645239529410000e+00 -3.4758785402219998e+00
162 -6.2785827922679998e+00 3.1425846102410002e+00 3.0374462600309999e+00
163 -5.7748982363090002e+00 1.1111575422530000e+00 5.8422957131209996e-01
164 3.9616344157920000e+00 -6.8988143274019997e-01 3.2517666478920000e+00
165 6.5981269970460001e+00 -2.0264306134050001e+00 -2.2855443312800001e+00
166 -6.8400207904560002e+00 7.3161750992829999e+00 4.4717880231249998e+00
167 2.8342644461319999e+00 7.9567803816990001e-01 -3.6638391869909999e+00
168 -1.1929152019189999e+00 1.7727522214370000e+00 2.9355660881949999e+00
169 5.2133374324819997e+00 2.9196331720159998e+00 3.4105500334080001e+00
170 -5.0135456378389998e-01 1.8355776747910000e+00 4.5745327313070003e+00
171 5.2295069921280000e+00 -4.4324357435139996e+00 2.5580553239890000e+00
172 -7.2624546129190000e+00 2.6579320380399998e+00 7.0646525706140002e+00
173 -2.7347344905219999e+00 5.9818415589990002e+00 3.0729051851390001e+00
174 -2.1854312615899998e+00 -3.2529426627430000e+00 3.2505962273689999e+00
175 4.1920532245939999e+00 -5.4349619857849999e-03 -2.1909173625110001e+00
176 -8.0927709550390003e-01 4.6368716129440002e-01 1.6904500722200000e+00
177 -3.0146898262359998e+00 -1.2456580913599999e+00 -5.2592458757070004e-01
178 6.7536167106459999e+00 -7.3241123177869998e+00 1.0509585030619999e+00
179 5.2401671894129997e-01 5.5913513360240001e+00 7.7903250280439995e-01
180 -5.1649654650979997e+00 2.0547561560230001e+00 -3.3137471582410001e+00
181 -4.6599235206260001e+00 2.9739880542570001e+00 7.2509886413580000e+00
182 -4.6971914052620001e+00 -2.0424728058630000e+00 -5.6092229917420000e-01
183 2.4110340226610001e+00 2.2349272679670000e+00 -8.2087525565250008e+00
184 3.9099485232730000e+00 2.3793633319219998e+00 9.8698069486129997e-02
185 2.7445099112400001e-01 3.3973324641790001e+00 -4.3448829365270001e+00
186 -2.8165599034839999e+00 -7.8672144222280005e-01 -4.2364948309560004e+00
187 -2.4296737490300000e+00 4.0835292288289997e+00 2.2888886670370001e-01
188 4.0086200065339996e+00 9.5831876855279996e-01 -4.9851282566880002e+00
189 -1.9419090497480000e+00 6.9496799765710005e-01 -9.6855262045390003e+00
190 -2.5365446502900002e+00 2.4778559188229998e+00 -1.1653806888090000e-02
191 4.8038559579060003e+00 5.4725005352589995e-01 4.9929414150279996e+00
192 -4.8492246598020001e+00 -6.9674829136940000e+00 -4.2252870713750001e-01
