B1 N1                                   
   1.0000000000000000     
     2.5156710000000002    0.0000000000000000    0.0000000000000000
    -1.2578370000000001    2.1786349999999999    0.0000000000000000
     0.0000000000000000    0.0000000000000000   25.0397950000000016
   B    N 
     1     1
Direct
  0.0000000000000000  0.0000000000000000  0.0000000000000000
  0.3333330000000032  0.6666669999999968  0.0000000000000000

  0.00000000E+00  0.00000000E+00  0.00000000E+00
  0.00000000E+00  0.00000000E+00  0.00000000E+00
