Hf1 S2                                  
   1.0000000000000000     
     1.8216829999999999   -3.1552470000000001    0.0000000000000000
     1.8216829999999999    3.1552470000000001    0.0000000000000000
     0.0000000000000000    0.0000000000000000   26.3378319999999988
   Hf   S 
     1     2
Direct
  0.0000000000000000  0.0000000000000000  0.0000000000000000
  0.6666669999999968  0.3333330000000032  0.9451380000000000
  0.3333330000000032  0.6666669999999968  0.0548620000000000

  0.00000000E+00  0.00000000E+00  0.00000000E+00
  0.00000000E+00  0.00000000E+00  0.00000000E+00
  0.00000000E+00  0.00000000E+00  0.00000000E+00
