 180
 units: A
      C                    6.203152    0.619378   -0.439948
      C                    6.199395   -0.767241   -0.172183
      C                    5.921534   -1.444164   -1.380343
      C                    5.753551   -0.475511   -2.394802
      C                    5.927673    0.799844   -1.813428
      C                    2.956279    5.356157    1.284451
      C                    4.006636    4.766574    0.546629
      C                    3.730798    4.946865   -0.827069
      C                    2.509722    5.647553   -0.938308
      C                    2.030875    5.900445    0.366371
      C                    3.522208   -0.177058    5.161911
      C                    4.574227    0.090855    4.258372
      C                    4.577786    1.477576    3.990941
      C                    3.527811    2.067080    4.729196
      C                    2.874881    1.044244    5.452519
      C                    2.480905   -5.603003    1.232273
      C                    3.705109   -4.916498    1.075754
      C                    3.983246   -4.239638    2.283966
      C                    2.931480   -4.508567    3.187714
      C                    2.002448   -5.350950    2.537463
      C                    1.271573   -3.423743   -5.074872
      C                    2.600098   -3.335752   -4.603487
      C                    2.768230   -4.304224   -3.589024
      C                    1.543563   -4.990253   -3.432701
      C                    0.618441   -4.445950   -4.350756
      C                    1.564859    3.349563   -5.042596
      C                    2.786384    2.649022   -4.931470
      C                    2.612416    1.373613   -5.513245
      C                    1.283572    1.286240   -5.984423
      C                    0.635853    2.507501   -5.693400
      C                   -6.203076   -0.619121    0.439733
      C                   -5.927171   -0.799591    1.813102
      C                   -5.753129    0.475725    2.394416
      C                   -5.921640    1.444429    1.380107
      C                   -6.199747    0.767498    0.171958
      C                   -2.030530   -5.899297   -0.365899
      C                   -2.509525   -5.647199    0.938782
      C                   -3.730430   -4.946267    0.827259
      C                   -4.006083   -4.765463   -0.546425
      C                   -2.955700   -5.354754   -1.284034
      C                   -0.635957   -2.508285    5.693966
      C                   -1.283505   -1.286656    5.984140
      C                   -2.612209   -1.373904    5.512844
      C                   -2.786392   -2.649582    4.931755
      C                   -1.565086   -3.350617    5.043561
      C                   -0.618486    4.446583    4.351140
      C                   -1.543733    4.991077    3.433233
      C                   -2.768318    4.304689    3.589247
      C                   -2.599966    3.335900    4.603361
      C                   -1.271507    3.423954    5.074834
      C                   -2.002071    5.349471   -2.536431
      C                   -2.931031    4.507228   -3.186795
      C                   -3.983172    4.238986   -2.283547
      C                   -3.705198    4.916281   -1.075448
      C                   -2.480804    5.602488   -1.231663
      C                   -2.875604   -1.044528   -5.453584
      C                   -3.528673   -2.067249   -4.730183
      C                   -4.579026   -1.477778   -3.992127
      C                   -4.575574   -0.091019   -4.259647
      C                   -3.523165    0.176750   -5.163013
      C                    5.586795    1.074694    1.842315
      C                    4.440180    3.241648    2.358549
      C                    5.289285    2.793317    0.043137
      C                    4.984415    1.983157    2.771092
      C                    5.814300    1.545177    0.508946
      C                    4.693178    3.662247    1.013065
      C                    5.583264   -0.338605    2.115272
      C                    4.426348   -2.153019    3.399556
      C                    5.274636   -2.600686    1.083953
      C                    4.977346   -0.834148    3.314604
      C                    5.806991   -1.271976    1.052589
      C                    4.675603   -3.044450    2.306743
      C                    4.991370   -3.290807   -0.147481
      C                    3.344418   -4.785294   -1.301396
      C                    4.502813   -2.971146   -2.584514
      C                    4.110513   -4.419515   -0.148058
      C                    5.242388   -2.647022   -1.401812
      C                    3.632595   -4.106955   -2.529446
      C                    4.331795   -1.983862   -3.618799
      C                    2.690917   -1.018033   -5.248452
      C                    4.338570    0.476582   -4.094139
      C                    3.291730   -2.139613   -4.590971
      C                    4.901690   -0.679343   -3.463229
      C                    3.298179    0.264763   -5.055523
      C                    5.008692    2.977575   -1.357154
      C                    3.367580    3.943458   -2.986083
      C                    4.515840    1.776869   -3.501231
      C                    4.133452    4.029540   -1.778771
      C                    5.255088    1.912195   -2.281946
      C                    3.651369    2.856087   -3.874003
      C                    3.369886    3.842857    3.110966
      C                    1.502251    3.367195    4.712846
      C                    1.203595    5.086092    2.913028
      C                    2.851192    3.180730    4.270246
      C                    2.559472    4.860166    2.511733
      C                    0.734603    4.395449    4.076959
      C                    0.258919    5.702348   -1.790003
      C                   -0.234943    4.501577   -3.934120
      C                    2.122541    4.657510   -3.099296
      C                   -0.650961    5.299902   -2.820326
      C                    1.652376    5.452002   -2.004214
      C                    1.169932    4.279011   -4.099548
      C                    0.260432    5.641490    1.977350
      C                   -2.096874    5.486003    1.142655
      C                   -0.229295    5.960716   -0.459929
      C                   -1.145316    5.502600    2.212952
      C                    0.679694    5.966556    0.646819
      C                   -1.623809    5.814605   -0.168783
      C                    3.354447   -2.426873    4.321187
      C                    1.182304   -3.645103    4.599250
      C                    1.490902   -1.381444    5.630531
      C                    2.538892   -3.590776    4.143303
      C                    2.840262   -1.378727    5.150821
      C                    0.717561   -2.569020    5.422475
      C                    0.830710   -0.136316    5.926474
      C                   -1.336081    1.107041    5.727978
      C                    0.836725    2.324708    5.450729
      C                   -0.597996   -0.087203    6.012138
      C                    1.524966    1.102700    5.740882
      C                   -0.591984    2.317665    5.547794
      C                    2.096609   -5.485183   -1.142024
      C                   -0.260379   -5.639922   -1.976537
      C                    0.229368   -5.960541    0.460766
      C                    1.145160   -5.501370   -2.212281
      C                    1.623765   -5.814352    0.169409
      C                   -0.679454   -5.965339   -0.646094
      C                   -0.258819   -5.703392    1.791152
      C                   -2.122671   -4.658623    3.100399
      C                    0.235036   -4.503669    3.935904
      C                   -1.652373   -5.452806    2.005140
      C                    0.651240   -5.301796    2.821827
      C                   -1.170064   -4.280701    4.101060
      C                    1.336270   -1.107238   -5.728628
      C                   -0.830930    0.135860   -5.927099
      C                   -0.836893   -2.324730   -5.451258
      C                    0.597962    0.086847   -6.012745
      C                    0.591986   -2.317660   -5.548201
      C                   -1.525453   -1.103001   -5.741737
      C                   -1.203384   -5.084621   -2.912347
      C                   -3.369919   -3.842049   -3.111017
      C                   -1.502439   -3.366819   -4.712992
      C                   -2.559156   -4.858717   -2.511285
      C                   -0.734585   -4.394553   -4.076568
      C                   -2.851544   -3.180414   -4.270706
      C                   -1.182115    3.643375   -4.597790
      C                   -3.354756    2.426048   -4.321089
      C                   -1.491194    1.380750   -5.630620
      C                   -2.538671    3.589319   -4.142269
      C                   -0.717602    2.567927   -5.421718
      C                   -2.840751    1.378147   -5.151216
      C                   -5.288896   -2.792660   -0.043273
      C                   -4.440388   -3.241038   -2.358840
      C                   -5.587789   -1.074576   -1.843013
      C                   -4.692794   -3.661384   -1.013153
      C                   -5.814423   -1.544829   -0.509294
      C                   -4.985419   -1.983013   -2.771936
      C                   -5.008118   -2.977111    1.356998
      C                   -3.367466   -3.943883    2.986537
      C                   -4.515334   -1.776888    3.500951
      C                   -4.133084   -4.029183    1.778952
      C                   -5.254548   -1.911890    2.281679
      C                   -3.651249   -2.856395    3.874168
      C                   -4.337956   -0.476568    4.093497
      C                   -2.690523    1.017889    5.247715
      C                   -4.331405    1.983983    3.618345
      C                   -3.297647   -0.264927    5.054815
      C                   -4.901076    0.679435    3.462651
      C                   -3.291353    2.139630    4.590456
      C                   -4.502862    2.971500    2.584393
      C                   -3.344761    4.785919    1.301733
      C                   -4.991846    3.291071    0.147413
      C                   -3.632805    4.107489    2.529671
      C                   -5.242668    2.647379    1.401714
      C                   -4.110882    4.419772    0.148334
      C                   -5.275304    2.600776   -1.084116
      C                   -4.427119    2.152655   -3.399918
      C                   -5.584594    0.338716   -2.116056
      C                   -4.676014    3.044110   -2.306854
      C                   -5.807857    1.272134   -1.053039
      C                   -4.978748    0.833984   -3.315627
