3
Lattice="1.800000e+01 0.000000e+00 0.000000e+00 0.000000e+00 1.800000e+01 0.000000e+00 0.000000e+00 0.000000e+00 1.800000e+01" Properties=species:S:1:pos:R:3:force:R:3 energy=2.418250e-03 dipole="-6.289174e-03 -1.050211e-15 -1.154936e-15" pol="2.567886e+01 3.389544e-10 -3.651002e-10 3.389544e-10 1.198086e+01 4.970293e-13 -3.651002e-10 4.970293e-13 1.198086e+01" pbc="T T T"
O 1.161160e+00 7.677806e-17 -2.967493e-17 5.079721e-01 -2.153487e-14 7.327659e-16
C 1.748775e-03 3.289068e-16 2.303950e-17 2.681663e-01 -2.398224e-14 -1.159656e-15
O -1.154966e+00 3.396555e-17 -8.531774e-17 -7.761557e-01 1.040661e-14 -4.693467e-14
3
Lattice="1.800000e+01 0.000000e+00 0.000000e+00 0.000000e+00 1.800000e+01 0.000000e+00 0.000000e+00 0.000000e+00 1.800000e+01" Properties=species:S:1:pos:R:3:force:R:3 energy=5.181017e-03 dipole="3.795260e-02 7.077490e-16 -1.568050e-15" pol="2.598291e+01 4.547974e-10 -4.143193e-10 4.547974e-10 1.206550e+01 2.747905e-12 -4.143193e-10 2.747905e-12 1.206550e+01" pbc="T T T"
O 1.165342e+00 -2.603019e-15 6.658377e-15 6.693094e-01 3.326732e-14 -2.175993e-14
C 8.693620e-03 4.596199e-15 2.011415e-17 -1.552250e+00 1.801813e-14 2.230097e-14
O -1.164363e+00 1.031021e-14 -6.640242e-15 8.830317e-01 4.998188e-14 4.363747e-14
3
Lattice="1.800000e+01 0.000000e+00 0.000000e+00 0.000000e+00 1.800000e+01 0.000000e+00 0.000000e+00 0.000000e+00 1.800000e+01" Properties=species:S:1:pos:R:3:force:R:3 energy=2.197605e-03 dipole="-2.681169e-02 4.180435e-15 -2.159775e-15" pol="2.585457e+01 2.389946e-10 -7.964306e-10 2.389946e-10 1.202953e+01 8.418931e-13 -7.964306e-10 8.418931e-13 1.202953e+01" pbc="T T T"
O 1.166312e+00 -8.421078e-15 2.016394e-14 -3.574488e-01 1.184772e-14 -1.984685e-14
C -1.470505e-03 1.338583e-14 -6.926228e-16 1.115924e+00 -7.247847e-15 4.491639e-14
O -1.157701e+00 3.432381e-14 -1.942881e-14 -7.585481e-01 2.255568e-14 -2.073003e-14
3
Lattice="1.800000e+01 0.000000e+00 0.000000e+00 0.000000e+00 1.800000e+01 0.000000e+00 0.000000e+00 0.000000e+00 1.800000e+01" Properties=species:S:1:pos:R:3:force:R:3 energy=9.922070e-03 dipole="-3.867365e-02 -1.024018e-15 9.371393e-16" pol="2.622587e+01 2.675996e-10 -5.660914e-10 2.675996e-10 1.213101e+01 -1.987384e-12 -5.660914e-10 -1.987384e-12 1.213101e+01" pbc="T T T"
O 1.175321e+00 -2.652779e-14 3.764776e-14 -1.464264e+00 3.974059e-14 -7.523874e-14
C -3.389575e-03 1.881678e-14 1.786503e-15 1.528656e+00 -6.398854e-14 7.415263e-14
O -1.165271e+00 5.998854e-14 -2.987208e-14 -6.445417e-02 4.185106e-14 -7.472280e-14
3
Lattice="1.800000e+01 0.000000e+00 0.000000e+00 0.000000e+00 1.800000e+01 0.000000e+00 0.000000e+00 0.000000e+00 1.800000e+01" Properties=species:S:1:pos:R:3:force:R:3 energy=3.246845e-03 dipole="-1.086431e-02 4.782156e-15 3.319573e-15" pol="2.619659e+01 -1.924456e-10 1.450962e-11 -1.924456e-10 1.212015e+01 -2.140897e-13 1.450962e-11 -2.140897e-13 1.212015e+01" pbc="T T T"
O 1.173127e+00 -3.130849e-13 3.022322e-13 -8.793892e-01 2.550693e-13 -6.152923e-14
C 1.011226e-03 -1.398175e-14 7.435784e-14 4.306811e-01 -1.377664e-13 8.974729e-14
O -1.166380e+00 2.840438e-13 -1.593146e-13 4.486878e-01 -1.129974e-13 1.265356e-13
3
Lattice="1.800000e+01 0.000000e+00 0.000000e+00 0.000000e+00 1.800000e+01 0.000000e+00 0.000000e+00 0.000000e+00 1.800000e+01" Properties=species:S:1:pos:R:3:force:R:3 energy=3.673330e-03 dipole="4.009050e-03 -3.155589e-15 -2.078274e-15" pol="2.622387e+01 4.591851e-10 -2.096061e-10 4.591851e-10 1.212720e+01 3.706385e-12 -2.096061e-10 3.706385e-12 1.212720e+01" pbc="T T T"
O 1.172864e+00 -4.356298e-13 4.647448e-13 -6.528848e-01 2.367424e-13 -1.548657e-13
C 3.363153e-03 -5.421303e-14 1.174155e-13 -1.582879e-01 8.719029e-14 -3.172554e-14
O -1.167882e+00 3.330343e-13 -2.271475e-13 8.111797e-01 -3.282879e-13 2.707307e-13
3
Lattice="1.800000e+01 0.000000e+00 0.000000e+00 0.000000e+00 1.800000e+01 0.000000e+00 0.000000e+00 0.000000e+00 1.800000e+01" Properties=species:S:1:pos:R:3:force:R:3 energy=2.594899e-03 dipole="4.231175e-03 -2.235048e-15 -2.593676e-16" pol="2.566954e+01 -3.605584e-10 -6.558240e-11 -3.605584e-10 1.197830e+01 -1.278608e-12 -6.558240e-11 -1.278608e-12 1.197830e+01" pbc="T T T"
O 1.160333e+00 -5.134163e-13 5.836466e-13 7.565842e-01 -3.003465e-13 2.017206e-13
C 3.388339e-03 -1.071007e-13 1.678427e-13 -1.806426e-01 7.181376e-14 -1.246559e-13
O -1.155371e+00 3.025543e-13 -2.557707e-13 -5.759299e-01 1.891537e-13 -2.009840e-13
3
Lattice="1.800000e+01 0.000000e+00 0.000000e+00 0.000000e+00 1.800000e+01 0.000000e+00 0.000000e+00 0.000000e+00 1.800000e+01" Properties=species:S:1:pos:R:3:force:R:3 energy=-5.773139e-04 dipole="8.669999e-03 -3.177452e-15 -7.985035e-16" pol="2.584067e+01 -5.232790e-10 3.596280e-10 -5.232790e-10 1.202465e+01 3.803575e-13 3.596280e-10 3.803575e-13 1.202465e+01" pbc="T T T"
O 1.163956e+00 -5.453626e-13 6.360731e-13 4.011841e-01 -8.637262e-14 5.157578e-14
C 4.086341e-03 -1.355501e-13 1.880949e-13 -3.613690e-01 1.242222e-13 -1.006180e-13
O -1.159517e+00 2.789364e-13 -2.573454e-13 -3.979047e-02 -1.061467e-14 -2.578719e-15
3
Lattice="1.800000e+01 0.000000e+00 0.000000e+00 0.000000e+00 1.800000e+01 0.000000e+00 0.000000e+00 0.000000e+00 1.800000e+01" Properties=species:S:1:pos:R:3:force:R:3 energy=2.196393e-03 dipole="1.421425e-02 -5.363578e-15 5.176143e-15" pol="2.571485e+01 2.907164e-10 4.603901e-10 2.907164e-10 1.199087e+01 1.979556e-12 4.603901e-10 1.979556e-12 1.199087e+01" pbc="T T T"
O 1.160768e+00 -5.830256e-13 7.043644e-13 8.525043e-01 -3.386447e-13 4.264823e-13
C 4.946986e-03 -1.808374e-13 2.267579e-13 -6.031130e-01 2.014292e-13 -1.349688e-13
O -1.156975e+00 2.239981e-13 -2.501433e-13 -2.493518e-01 1.233987e-13 -1.533811e-13
3
Lattice="1.800000e+01 0.000000e+00 0.000000e+00 0.000000e+00 1.800000e+01 0.000000e+00 0.000000e+00 0.000000e+00 1.800000e+01" Properties=species:S:1:pos:R:3:force:R:3 energy=2.197364e-03 dipole="-2.448094e-02 5.918437e-15 -1.291915e-14" pol="2.580776e+01 -5.317682e-11 -5.741556e-10 -5.317682e-11 1.201667e+01 6.308760e-13 -5.741556e-10 6.308760e-13 1.201667e+01" pbc="T T T"
O 1.165122e+00 -6.363065e-13 8.825487e-13 -1.946478e-01 4.509616e-14 -1.021854e-13
C -1.100605e-03 -3.305251e-13 3.417364e-13 1.025553e+00 -2.794380e-13 5.213280e-13
O -1.156788e+00 -2.353591e-14 -1.898212e-13 -8.309728e-01 1.881376e-13 -3.717478e-13
3
Lattice="1.800000e+01 0.000000e+00 0.000000e+00 0.000000e+00 1.800000e+01 0.000000e+00 0.000000e+00 0.000000e+00 1.800000e+01" Properties=species:S:1:pos:R:3:force:R:3 energy=2.494582e-04 dipole="8.015445e-04 6.432274e-17 -5.870578e-15" pol="2.609385e+01 -1.861816e-10 1.612223e-10 -1.861816e-10 1.209253e+01 -3.489383e-12 1.612223e-10 -3.489383e-12 1.209253e+01" pbc="T T T"
O 1.170138e+00 -6.707706e-13 1.158431e-12 -4.011907e-01 9.496753e-15 -2.894813e-13
C 2.855419e-03 -5.597297e-13 5.489610e-13 -3.218120e-02 -5.285584e-14 3.511275e-14
O -1.164775e+00 -4.525069e-13 -5.680600e-14 4.333737e-01 -4.270311e-14 2.243742e-13
3
Lattice="1.800000e+01 0.000000e+00 0.000000e+00 0.000000e+00 1.800000e+01 0.000000e+00 0.000000e+00 0.000000e+00 1.800000e+01" Properties=species:S:1:pos:R:3:force:R:3 energy=7.578803e-03 dipole="-4.365124e-02 -4.211129e-18 -2.105127e-14" pol="2.603005e+01 -6.105916e-10 -1.547614e-10 -6.105916e-10 1.207912e+01 2.403888e-12 -1.547614e-10 2.403888e-12 1.207912e+01" pbc="T T T"
O 1.171186e+00 -8.436502e-13 1.389535e-12 -1.100031e+00 -2.795676e-14 -5.066497e-13
C -4.139990e-03 -7.911988e-13 7.757037e-13 1.774201e+00 -4.875697e-14 8.662645e-13
O -1.160571e+00 -7.322907e-13 1.666467e-13 -6.742663e-01 3.902380e-14 -3.452607e-13
3
Lattice="1.800000e+01 0.000000e+00 0.000000e+00 0.000000e+00 1.800000e+01 0.000000e+00 0.000000e+00 0.000000e+00 1.800000e+01" Properties=species:S:1:pos:R:3:force:R:3 energy=5.836450e-03 dipole="-2.179225e-02 5.112580e-15 -1.093024e-14" pol="2.563564e+01 1.007304e-10 5.188152e-10 1.007304e-10 1.196981e+01 -3.775301e-12 5.188152e-10 -3.775301e-12 1.196981e+01" pbc="T T T"
O 1.161053e+00 -1.680241e-12 1.937975e-12 2.999672e-01 2.645715e-14 9.354364e-14
C -6.645336e-04 -1.366344e-12 1.397210e-12 9.352062e-01 -2.236799e-13 4.504468e-13
O -1.153048e+00 -1.048741e-12 8.559332e-13 -1.235230e+00 3.747768e-13 -5.310752e-13
3
Lattice="1.800000e+01 0.000000e+00 0.000000e+00 0.000000e+00 1.800000e+01 0.000000e+00 0.000000e+00 0.000000e+00 1.800000e+01" Properties=species:S:1:pos:R:3:force:R:3 energy=5.517247e-03 dipole="2.538943e-02 -1.689605e-14 1.098742e-14" pol="2.619854e+01 -1.430439e-10 -1.957843e-10 -1.430439e-10 1.212182e+01 2.383533e-12 -1.957843e-10 2.383533e-12 1.212182e+01" pbc="T T T"
O 1.170977e+00 -1.926793e-12 2.110253e-12 -1.522045e-01 1.871721e-14 -4.577868e-14
C 6.743083e-03 -1.525180e-12 1.588507e-12 -1.006692e+00 4.662440e-13 -3.800386e-13
O -1.168532e+00 -1.104513e-12 1.065013e-12 1.158942e+00 -4.343711e-13 4.765643e-13
3
Lattice="1.800000e+01 0.000000e+00 0.000000e+00 0.000000e+00 1.800000e+01 0.000000e+00 0.000000e+00 0.000000e+00 1.800000e+01" Properties=species:S:1:pos:R:3:force:R:3 energy=-1.015304e-03 dipole="-7.512160e-03 -2.747610e-15 -5.182662e-15" pol="2.596227e+01 -4.093036e-10 -4.549905e-10 -4.093036e-10 1.205734e+01 -2.274377e-12 -4.549905e-10 -2.274377e-12 1.205734e+01" pbc="T T T"
O 1.167660e+00 -2.295554e-12 2.411629e-12 -2.430652e-01 1.035362e-13 -1.807113e-13
C 1.548922e-03 -1.794226e-12 1.916166e-12 3.077828e-01 -9.099013e-16 1.818128e-13
O -1.161316e+00 -1.277955e-12 1.427771e-12 -6.473770e-02 -4.972377e-14 -6.896863e-14
3
Lattice="1.800000e+01 0.000000e+00 0.000000e+00 0.000000e+00 1.800000e+01 0.000000e+00 0.000000e+00 0.000000e+00 1.800000e+01" Properties=species:S:1:pos:R:3:force:R:3 energy=1.668797e-03 dipole="-1.294758e-02 1.271249e-14 -8.672732e-16" pol="2.612808e+01 1.412056e-10 -2.505948e-10 1.412056e-10 1.210197e+01 1.971930e-12 -2.505948e-10 1.971930e-12 1.210197e+01" pbc="T T T"
O 1.171709e+00 -2.410465e-12 2.499456e-12 -7.560150e-01 4.124001e-13 -2.982188e-13
C 6.859617e-04 -1.865866e-12 2.020042e-12 5.182785e-01 -3.409089e-13 1.674050e-13
O -1.164717e+00 -1.337429e-12 1.531222e-12 2.377087e-01 -5.769862e-14 1.397168e-13
3
Lattice="1.800000e+01 0.000000e+00 0.000000e+00 0.000000e+00 1.800000e+01 0.000000e+00 0.000000e+00 0.000000e+00 1.800000e+01" Properties=species:S:1:pos:R:3:force:R:3 energy=2.315270e-03 dipole="-4.456615e-03 -4.290049e-15 -1.426860e-14" pol="2.617866e+01 4.708533e-10 -3.859333e-10 4.708533e-10 1.211517e+01 -2.005577e-12 -3.859333e-10 -2.005577e-12 1.211517e+01" pbc="T T T"
O 1.172353e+00 -2.948623e-12 2.936189e-12 -7.117795e-01 3.597799e-13 -2.905748e-13
C 2.024716e-03 -2.305800e-12 2.515662e-12 1.770894e-01 2.910686e-14 2.098810e-13
O -1.166366e+00 -1.648786e-12 2.111042e-12 5.346815e-01 -4.466429e-13 9.466222e-14
3
Lattice="1.800000e+01 0.000000e+00 0.000000e+00 0.000000e+00 1.800000e+01 0.000000e+00 0.000000e+00 0.000000e+00 1.800000e+01" Properties=species:S:1:pos:R:3:force:R:3 energy=1.926727e-03 dipole="-2.649573e-02 5.778596e-16 -8.468638e-15" pol="2.588118e+01 1.291940e-09 -2.529588e-10 1.291940e-09 1.203669e+01 9.919762e-13 -2.529588e-10 9.919762e-13 1.203669e+01" pbc="T T T"
O 1.166898e+00 -4.695528e-12 4.327300e-12 -4.172738e-01 1.041943e-13 -2.718829e-14
C -1.423842e-03 -4.218201e-12 4.448091e-12 1.098638e+00 -3.157261e-13 8.100541e-15
O -1.158322e+00 -3.725077e-12 4.589050e-12 -6.814350e-01 1.887384e-13 1.613098e-14
3
Lattice="1.800000e+01 0.000000e+00 0.000000e+00 0.000000e+00 1.800000e+01 0.000000e+00 0.000000e+00 0.000000e+00 1.800000e+01" Properties=species:S:1:pos:R:3:force:R:3 energy=5.333332e-03 dipole="3.831060e-02 -3.030045e-14 -1.919601e-14" pol="2.598876e+01 -5.092360e-10 1.638823e-10 -5.092360e-10 1.206714e+01 1.418940e-12 1.638823e-10 1.418940e-12 1.206714e+01" pbc="T T T"
O 1.165450e+00 -4.895940e-12 4.456680e-12 6.620288e-01 -3.237444e-13 -2.128696e-13
C 8.750845e-03 -4.459758e-12 4.651691e-12 -1.565637e+00 8.254212e-13 4.081642e-13
O -1.164514e+00 -3.987095e-12 4.873772e-12 9.036996e-01 -4.746627e-13 -2.862882e-13
3
Lattice="1.800000e+01 0.000000e+00 0.000000e+00 0.000000e+00 1.800000e+01 0.000000e+00 0.000000e+00 0.000000e+00 1.800000e+01" Properties=species:S:1:pos:R:3:force:R:3 energy=1.088119e-03 dipole="-1.566729e-02 1.392726e-14 1.307672e-14" pol="2.608194e+01 2.211686e-10 -2.245889e-10 2.211686e-10 1.208979e+01 -3.744953e-13 -2.245889e-10 -3.744953e-13 1.208979e+01" pbc="T T T"
O 1.170826e+00 -5.732107e-12 4.996506e-12 -6.976543e-01 2.550527e-13 3.201362e-13
C 2.595933e-04 -5.535625e-12 5.488144e-12 6.312851e-01 -3.504678e-13 -3.304638e-13
O -1.163514e+00 -5.372737e-12 5.968708e-12 6.633306e-02 1.757676e-14 1.331268e-14
3
Lattice="1.800000e+01 0.000000e+00 0.000000e+00 0.000000e+00 1.800000e+01 0.000000e+00 0.000000e+00 0.000000e+00 1.800000e+01" Properties=species:S:1:pos:R:3:force:R:3 energy=2.635368e-03 dipole="-2.538592e-02 1.112661e-14 1.159898e-14" pol="2.579245e+01 -1.010831e-09 5.329629e-10 -1.010831e-09 1.201261e+01 -1.480403e-12 5.329629e-10 -1.480403e-12 1.201261e+01" pbc="T T T"
O 1.164824e+00 -5.911716e-12 5.128146e-12 -1.740085e-01 6.088414e-14 8.894350e-14
C -1.240621e-03 -5.789327e-12 5.645476e-12 1.065795e+00 -2.302543e-13 -5.022603e-13
O -1.156386e+00 -5.683816e-12 6.158433e-12 -8.918564e-01 1.573472e-13 4.522487e-13
3
Lattice="1.800000e+01 0.000000e+00 0.000000e+00 0.000000e+00 1.800000e+01 0.000000e+00 0.000000e+00 0.000000e+00 1.800000e+01" Properties=species:S:1:pos:R:3:force:R:3 energy=4.800960e-03 dipole="-1.567184e-02 2.738839e-14 1.488800e-14" pol="2.622901e+01 -4.323005e-11 1.635262e-10 -4.323005e-11 1.212906e+01 -7.252513e-14 1.635262e-10 -7.252513e-14 1.212906e+01" pbc="T T T"
O 1.174129e+00 -6.162466e-12 5.256885e-12 -1.047881e+00 1.750591e-13 5.599392e-13
C 2.491448e-04 -6.094910e-12 5.835518e-12 6.185014e-01 -3.254234e-13 -3.755728e-13
O -1.166809e+00 -6.066449e-12 6.398719e-12 4.293526e-01 1.140114e-13 -9.573586e-14
3
Lattice="1.800000e+01 0.000000e+00 0.000000e+00 0.000000e+00 1.800000e+01 0.000000e+00 0.000000e+00 0.000000e+00 1.800000e+01" Properties=species:S:1:pos:R:3:force:R:3 energy=2.266406e-05 dipole="7.633317e-03 5.365114e-16 -2.255880e-15" pol="2.578862e+01 -2.790918e-10 -2.720568e-10 -2.790918e-10 1.201058e+01 -1.138423e-12 -2.720568e-10 -1.138423e-12 1.201058e+01" pbc="T T T"
O 1.162838e+00 -6.603561e-12 5.441692e-12 5.148236e-01 2.675266e-14 -2.846779e-13
C 3.922436e-03 -6.629064e-12 6.116184e-12 -3.204949e-01 -2.795808e-14 1.974740e-13
O -1.158276e+00 -6.659919e-12 6.792050e-12 -1.943069e-01 1.471367e-14 2.108100e-13
3
Lattice="1.800000e+01 0.000000e+00 0.000000e+00 0.000000e+00 1.800000e+01 0.000000e+00 0.000000e+00 0.000000e+00 1.800000e+01" Properties=species:S:1:pos:R:3:force:R:3 energy=-8.707300e-04 dipole="2.469860e-03 -1.296031e-14 -4.972757e-15" pol="2.583881e+01 -7.316973e-12 1.485369e-10 -7.316973e-12 1.202404e+01 3.267308e-12 1.485369e-10 3.267308e-12 1.202404e+01" pbc="T T T"
O 1.164283e+00 -7.210705e-12 5.737587e-12 2.750653e-01 -5.097925e-14 -1.306909e-13
C 3.115606e-03 -7.441102e-12 6.495382e-12 -1.029493e-01 2.104600e-13 1.276246e-13
O -1.159115e+00 -7.645285e-12 7.265347e-12 -1.721089e-01 -1.579295e-13 1.253336e-13
3
Lattice="1.800000e+01 0.000000e+00 0.000000e+00 0.000000e+00 1.800000e+01 0.000000e+00 0.000000e+00 0.000000e+00 1.800000e+01" Properties=species:S:1:pos:R:3:force:R:3 energy=3.503990e-03 dipole="1.882920e-02 1.669717e-14 -5.878765e-15" pol="2.617046e+01 4.948043e-10 -4.307253e-11 4.948043e-10 1.211368e+01 3.119484e-12 -4.307253e-11 3.119484e-12 1.211368e+01" pbc="T T T"
O 1.170761e+00 -7.657226e-12 6.073581e-12 -2.203977e-01 -1.422489e-14 8.733482e-14
C 5.703704e-03 -8.057778e-12 6.798825e-12 -7.493486e-01 -3.660842e-13 4.185274e-13
O -1.167536e+00 -8.483409e-12 7.519683e-12 9.697831e-01 4.094579e-13 -5.236492e-13
3
Lattice="1.800000e+01 0.000000e+00 0.000000e+00 0.000000e+00 1.800000e+01 0.000000e+00 0.000000e+00 0.000000e+00 1.800000e+01" Properties=species:S:1:pos:R:3:force:R:3 energy=8.692510e-04 dipole="1.494422e-02 2.307460e-14 -9.263279e-15" pol="2.578297e+01 -2.723521e-10 1.803769e-10 -2.723521e-10 1.200933e+01 -8.883645e-13 1.803769e-10 -8.883645e-13 1.200933e+01" pbc="T T T"
O 1.162270e+00 -7.930142e-12 6.293041e-12 6.873199e-01 3.054234e-13 -3.717409e-13
C 5.064891e-03 -8.388158e-12 6.952937e-12 -6.280452e-01 -3.840056e-13 3.161741e-13
O -1.158566e+00 -8.875171e-12 7.613491e-12 -5.923261e-02 1.275878e-13 1.366369e-13
3
Lattice="1.800000e+01 0.000000e+00 0.000000e+00 0.000000e+00 1.800000e+01 0.000000e+00 0.000000e+00 0.000000e+00 1.800000e+01" Properties=species:S:1:pos:R:3:force:R:3 energy=4.229949e-03 dipole="-2.933091e-02 -1.043636e-15 1.979200e-14" pol="2.610901e+01 2.191440e-10 9.655072e-12 2.191440e-10 1.209830e+01 -1.183800e-12 9.655072e-12 -1.183800e-12 1.209830e+01" pbc="T T T"
O 1.172196e+00 -8.129067e-12 6.447555e-12 -1.022123e+00 -3.491172e-13 6.097967e-13
C -1.896586e-03 -8.630697e-12 7.066411e-12 1.177957e+00 3.146644e-13 -7.258280e-13
O -1.163265e+00 -9.156651e-12 7.670187e-12 -1.558962e-01 4.203556e-14 1.952445e-13
3
Lattice="1.800000e+01 0.000000e+00 0.000000e+00 0.000000e+00 1.800000e+01 0.000000e+00 0.000000e+00 0.000000e+00 1.800000e+01" Properties=species:S:1:pos:R:3:force:R:3 energy=9.655092e-03 dipole="-3.869907e-02 -1.102493e-14 2.454011e-14" pol="2.621703e+01 -1.063156e-10 4.279519e-10 -1.063156e-10 1.212864e+01 1.777839e-12 4.279519e-10 1.777839e-12 1.212864e+01" pbc="T T T"
O 1.175125e+00 -8.323548e-12 6.598520e-12 -1.444532e+00 -6.403477e-13 7.625016e-13
C -3.392058e-03 -8.871903e-12 7.162821e-12 1.531567e+00 5.767241e-13 -8.287523e-13
O -1.165072e+00 -9.431003e-12 7.710620e-12 -8.709855e-02 6.372137e-14 1.226684e-13
3
Lattice="1.800000e+01 0.000000e+00 0.000000e+00 0.000000e+00 1.800000e+01 0.000000e+00 0.000000e+00 0.000000e+00 1.800000e+01" Properties=species:S:1:pos:R:3:force:R:3 energy=4.043998e-03 dipole="2.338395e-03 1.651921e-14 1.512206e-15" pol="2.623627e+01 1.314269e-10 -1.505524e-10 1.314269e-10 1.213049e+01 -1.533412e-13 -1.505524e-10 -1.533412e-13 1.213049e+01" pbc="T T T"
O 1.173241e+00 -8.548415e-12 6.765112e-12 -7.158704e-01 -2.901962e-13 3.394180e-13
C 3.099043e-03 -9.137377e-12 7.258808e-12 -9.215094e-02 -1.692665e-13 -5.264143e-14
O -1.168061e+00 -9.748652e-12 7.747088e-12 8.080253e-01 4.890901e-13 -2.434456e-13
3
Lattice="1.800000e+01 0.000000e+00 0.000000e+00 0.000000e+00 1.800000e+01 0.000000e+00 0.000000e+00 0.000000e+00 1.800000e+01" Properties=species:S:1:pos:R:3:force:R:3 energy=5.741423e-03 dipole="-2.868517e-02 -6.007140e-15 5.610463e-15" pol="2.618003e+01 -6.853619e-11 5.938092e-10 -6.853619e-11 1.211725e+01 -1.747752e-12 5.938092e-10 -1.747752e-12 1.211725e+01" pbc="T T T"
O 1.173755e+00 -1.002777e-11 7.706901e-12 -1.176826e+00 -5.653862e-13 -2.071696e-14
C -1.804017e-03 -1.060242e-11 7.659281e-12 1.140517e+00 4.544596e-13 -2.538714e-14
O -1.164895e+00 -1.118699e-11 7.603727e-12 3.625601e-02 7.354902e-14 1.039791e-13
3
Lattice="1.800000e+01 0.000000e+00 0.000000e+00 0.000000e+00 1.800000e+01 0.000000e+00 0.000000e+00 0.000000e+00 1.800000e+01" Properties=species:S:1:pos:R:3:force:R:3 energy=3.356080e-03 dipole="1.801368e-02 1.724963e-14 8.926078e-15" pol="2.616968e+01 5.749704e-10 -1.065557e-10 5.749704e-10 1.211341e+01 -2.108728e-12 -1.065557e-10 -2.108728e-12 1.211341e+01" pbc="T T T"
O 1.170795e+00 -1.029631e-11 7.860352e-12 -2.354563e-01 -3.776987e-14 -7.733163e-14
C 5.574869e-03 -1.082703e-11 7.723638e-12 -7.169529e-01 -4.808833e-13 -2.078635e-13
O -1.167473e+00 -1.137771e-11 7.573723e-12 9.524445e-01 4.199033e-13 1.569883e-13
3
Lattice="1.800000e+01 0.000000e+00 0.000000e+00 0.000000e+00 1.800000e+01 0.000000e+00 0.000000e+00 0.000000e+00 1.800000e+01" Properties=species:S:1:pos:R:3:force:R:3 energy=1.362424e-03 dipole="1.546796e-02 3.041669e-15 2.300608e-14" pol="2.575993e+01 -6.666731e-10 -4.172084e-11 -6.666731e-10 1.200313e+01 -2.064897e-12 -4.172084e-11 -2.064897e-12 1.200313e+01" pbc="T T T"
O 1.161716e+00 -1.096950e-11 8.321180e-12 7.597742e-01 2.694080e-13 4.166255e-13
C 5.145454e-03 -1.143720e-11 7.942764e-12 -6.521757e-01 -1.822526e-13 -4.721964e-13
O -1.158072e+00 -1.190106e-11 7.525354e-12 -1.075551e-01 -8.010409e-14 9.115185e-14
3
Lattice="1.800000e+01 0.000000e+00 0.000000e+00 0.000000e+00 1.800000e+01 0.000000e+00 0.000000e+00 0.000000e+00 1.800000e+01" Properties=species:S:1:pos:R:3:force:R:3 energy=2.970310e-03 dipole="1.121822e-02 -6.696817e-16 1.475631e-14" pol="2.567377e+01 1.047983e-10 -2.405224e-10 1.047983e-10 1.197961e+01 1.736652e-12 -2.405224e-10 1.736652e-12 1.197961e+01" pbc="T T T"
O 1.160014e+00 -1.118777e-11 8.464421e-12 8.970163e-01 2.798019e-13 3.670717e-13
C 4.477473e-03 -1.162463e-11 8.014220e-12 -4.787217e-01 -5.446316e-14 -2.692810e-13
O -1.155869e+00 -1.205199e-11 7.545477e-12 -4.182640e-01 -1.789864e-13 -1.607451e-13
3
Lattice="1.800000e+01 0.000000e+00 0.000000e+00 0.000000e+00 1.800000e+01 0.000000e+00 0.000000e+00 0.000000e+00 1.800000e+01" Properties=species:S:1:pos:R:3:force:R:3 energy=3.693840e-03 dipole="-4.621997e-03 4.664282e-15 -8.407225e-15" pol="2.563610e+01 -7.989749e-10 -2.102720e-10 -7.989749e-10 1.196923e+01 6.732490e-13 -2.102720e-10 6.732490e-13 1.196923e+01" pbc="T T T"
O 1.160088e+00 -1.159303e-11 8.705846e-12 6.562584e-01 3.075466e-13 1.956714e-13
C 2.009240e-03 -1.193804e-11 8.145258e-12 1.982617e-01 -6.214399e-14 3.525146e-13
O -1.154090e+00 -1.230085e-11 7.609715e-12 -8.545325e-01 -2.054163e-13 -5.199958e-13
3
Lattice="1.800000e+01 0.000000e+00 0.000000e+00 0.000000e+00 1.800000e+01 0.000000e+00 0.000000e+00 0.000000e+00 1.800000e+01" Properties=species:S:1:pos:R:3:force:R:3 energy=5.961543e-03 dipole="3.508373e-02 8.303483e-15 1.490374e-15" pol="2.611623e+01 6.939293e-10 7.200333e-11 6.939293e-10 1.210100e+01 1.648362e-12 7.200333e-11 1.648362e-12 1.210100e+01" pbc="T T T"
O 1.168515e+00 -1.294782e-11 9.489433e-12 2.624713e-01 3.339239e-14 -2.260108e-14
C 8.262741e-03 -1.294355e-11 8.739439e-12 -1.408007e+00 -1.142402e-13 -6.204183e-13
O -1.167212e+00 -1.295044e-11 8.017073e-12 1.145607e+00 4.291109e-14 5.511070e-13
3
Lattice="1.800000e+01 0.000000e+00 0.000000e+00 0.000000e+00 1.800000e+01 0.000000e+00 0.000000e+00 0.000000e+00 1.800000e+01" Properties=species:S:1:pos:R:3:force:R:3 energy=2.732881e-03 dipole="-1.964727e-03 -6.058783e-15 1.573154e-14" pol="2.566292e+01 -1.493615e-10 4.712417e-10 -1.493615e-10 1.197649e+01 1.479307e-12 4.712417e-10 1.479307e-12 1.197649e+01" pbc="T T T"
O 1.160546e+00 -1.320206e-11 9.602010e-12 6.415306e-01 -9.609271e-14 5.223046e-13
C 2.423054e-03 -1.315734e-11 8.913567e-12 8.394114e-02 1.348857e-13 -1.514435e-13
O -1.154858e+00 -1.309646e-11 8.193769e-12 -7.254771e-01 3.655091e-14 -3.485776e-13
3
Lattice="1.800000e+01 0.000000e+00 0.000000e+00 0.000000e+00 1.800000e+01 0.000000e+00 0.000000e+00 0.000000e+00 1.800000e+01" Properties=species:S:1:pos:R:3:force:R:3 energy=8.024371e-03 dipole="4.403219e-02 -2.094899e-14 4.326547e-14" pol="2.605622e+01 -2.395514e-10 3.833973e-10 -2.395514e-10 1.208626e+01 1.485697e-12 3.833973e-10 1.485697e-12 1.208626e+01" pbc="T T T"
O 1.166589e+00 -1.406698e-11 9.882987e-12 6.148284e-01 -2.111989e-13 4.556145e-13
C 9.662524e-03 -1.375336e-11 9.371111e-12 -1.783164e+00 6.884847e-13 -1.178289e-12
O -1.166338e+00 -1.340907e-11 8.802751e-12 1.168430e+00 -3.971887e-13 7.081462e-13
3
Lattice="1.800000e+01 0.000000e+00 0.000000e+00 0.000000e+00 1.800000e+01 0.000000e+00 0.000000e+00 0.000000e+00 1.800000e+01" Properties=species:S:1:pos:R:3:force:R:3 energy=3.707436e-03 dipole="1.362199e-02 3.938750e-15 -2.977082e-14" pol="2.620248e+01 -3.752075e-11 -4.629900e-10 -3.752075e-11 1.212186e+01 -2.528975e-12 -4.629900e-10 -2.528975e-12 1.212186e+01" pbc="T T T"
O 1.171801e+00 -1.443890e-11 1.004677e-11 -4.067029e-01 2.732344e-13 -4.546869e-13
C 4.883102e-03 -1.399047e-11 9.535959e-12 -5.395889e-01 -1.528093e-14 3.387302e-13
O -1.167959e+00 -1.356558e-11 9.091323e-12 9.463167e-01 -2.186439e-13 1.133432e-13
3
Lattice="1.800000e+01 0.000000e+00 0.000000e+00 0.000000e+00 1.800000e+01 0.000000e+00 0.000000e+00 0.000000e+00 1.800000e+01" Properties=species:S:1:pos:R:3:force:R:3 energy=5.519151e-03 dipole="-2.026874e-02 9.206183e-15 -3.737544e-15" pol="2.563612e+01 -7.512470e-11 2.851807e-10 -7.512470e-11 1.196984e+01 -1.152734e-12 2.851807e-10 -1.152734e-12 1.196984e+01" pbc="T T T"
O 1.160979e+00 -1.476427e-11 1.017089e-11 3.298732e-01 -9.330194e-14 1.283043e-13
C -4.273802e-04 -1.425135e-11 9.768181e-12 8.697250e-01 -4.499247e-13 2.823194e-13
O -1.153152e+00 -1.374267e-11 9.361042e-12 -1.199651e+00 6.200022e-13 -4.034024e-13
3
Lattice="1.800000e+01 0.000000e+00 0.000000e+00 0.000000e+00 1.800000e+01 0.000000e+00 0.000000e+00 0.000000e+00 1.800000e+01" Properties=species:S:1:pos:R:3:force:R:3 energy=5.779372e-03 dipole="-2.144044e-02 2.519999e-14 -3.702420e-14" pol="2.623158e+01 -7.316576e-10 7.274221e-12 -7.316576e-10 1.213023e+01 9.839892e-13 7.274221e-12 9.839892e-13 1.213023e+01" pbc="T T T"
O 1.174511e+00 -1.578702e-11 1.055067e-11 -1.162451e+00 8.406656e-13 -3.761315e-13
C -6.639003e-04 -1.502239e-11 1.039297e-11 8.460216e-01 -6.985894e-13 6.520990e-13
O -1.166507e+00 -1.428625e-11 1.030735e-11 3.163939e-01 -1.121710e-13 -2.415277e-13
3
Lattice="1.800000e+01 0.000000e+00 0.000000e+00 0.000000e+00 1.800000e+01 0.000000e+00 0.000000e+00 0.000000e+00 1.800000e+01" Properties=species:S:1:pos:R:3:force:R:3 energy=4.005559e-03 dipole="-9.586747e-03 1.035726e-14 -1.092977e-14" pol="2.563665e+01 -2.153257e-10 -1.469423e-10 -2.153257e-10 1.196949e+01 -9.154948e-13 -1.469423e-10 -9.154948e-13 1.196949e+01" pbc="T T T"
O 1.160387e+00 -1.629741e-11 1.090107e-11 5.500030e-01 -2.891538e-13 -9.142282e-14
C 1.236065e-03 -1.553420e-11 1.083881e-11 4.112321e-01 -3.371589e-13 1.423398e-13
O -1.153808e+00 -1.478181e-11 1.079602e-11 -9.612606e-01 6.555813e-13 -1.194319e-13
3
Lattice="1.800000e+01 0.000000e+00 0.000000e+00 0.000000e+00 1.800000e+01 0.000000e+00 0.000000e+00 0.000000e+00 1.800000e+01" Properties=species:S:1:pos:R:3:force:R:3 energy=3.370463e-04 dipole="3.806615e-03 -1.240932e-14 2.492275e-14" pol="2.575965e+01 1.126541e-10 3.503540e-10 1.126541e-10 1.200269e+01 -3.363524e-12 3.503540e-10 -3.363524e-12 1.200269e+01" pbc="T T T"
O 1.162408e+00 -1.677511e-11 1.140122e-11 5.091695e-01 -3.457140e-13 2.918523e-13
C 3.323657e-03 -1.614903e-11 1.135273e-11 -1.604646e-01 2.573947e-13 -3.812188e-13
O -1.157397e+00 -1.549916e-11 1.125473e-11 -3.486941e-01 1.359715e-13 1.614766e-13
3
Lattice="1.800000e+01 0.000000e+00 0.000000e+00 0.000000e+00 1.800000e+01 0.000000e+00 0.000000e+00 0.000000e+00 1.800000e+01" Properties=species:S:1:pos:R:3:force:R:3 energy=-1.119787e-03 dipole="6.719585e-03 -1.757714e-14 2.722585e-14" pol="2.590881e+01 -2.345876e-10 -3.087124e-10 -2.345876e-10 1.204295e+01 -1.487258e-12 -3.087124e-10 -1.487258e-12 1.204295e+01" pbc="T T T"
O 1.165614e+00 -1.735734e-11 1.217039e-11 1.843366e-01 -1.242223e-13 2.343008e-13
C 3.782859e-03 -1.692776e-11 1.196987e-11 -2.773883e-01 2.803299e-13 -4.580206e-13
O -1.160948e+00 -1.647117e-11 1.171448e-11 9.307031e-02 -1.186146e-13 2.649641e-13
3
Lattice="1.800000e+01 0.000000e+00 0.000000e+00 0.000000e+00 1.800000e+01 0.000000e+00 0.000000e+00 0.000000e+00 1.800000e+01" Properties=species:S:1:pos:R:3:force:R:3 energy=3.803478e-03 dipole="-1.810003e-02 1.533656e-14 -2.310389e-14" pol="2.567735e+01 5.205571e-10 5.829734e-11 5.205571e-10 1.198090e+01 4.179053e-13 5.829734e-11 4.179053e-13 1.198090e+01" pbc="T T T"
O 1.161798e+00 -1.783801e-11 1.293817e-11 2.669690e-01 6.148610e-14 -4.293342e-14
C -9.292090e-05 -1.763107e-11 1.251527e-11 7.721270e-01 -2.831904e-13 4.988340e-13
O -1.154222e+00 -1.744387e-11 1.212889e-11 -1.039145e+00 2.597737e-13 -4.619390e-13
3
Lattice="1.800000e+01 0.000000e+00 0.000000e+00 0.000000e+00 1.800000e+01 0.000000e+00 0.000000e+00 0.000000e+00 1.800000e+01" Properties=species:S:1:pos:R:3:force:R:3 energy=8.802133e-03 dipole="3.325843e-02 -2.593722e-15 -4.051582e-16" pol="2.624139e+01 -6.342716e-10 -3.729224e-10 -6.342716e-10 1.213430e+01 1.309949e-12 -3.729224e-10 1.309949e-12 1.213430e+01" pbc="T T T"
O 1.171428e+00 -1.798070e-11 1.314850e-11 -9.103117e-02 -4.441208e-15 -9.323387e-14
C 7.993042e-03 -1.785932e-11 1.270483e-11 -1.311288e+00 8.789369e-14 -2.801838e-13
O -1.169922e+00 -1.773843e-11 1.228008e-11 1.402371e+00 -1.413052e-13 4.402301e-13
3
Lattice="1.800000e+01 0.000000e+00 0.000000e+00 0.000000e+00 1.800000e+01 0.000000e+00 0.000000e+00 0.000000e+00 1.800000e+01" Properties=species:S:1:pos:R:3:force:R:3 energy=7.279137e-03 dipole="3.780770e-02 3.081433e-15 -2.627229e-15" pol="2.613833e+01 -5.815551e-10 -4.673100e-10 -5.815551e-10 1.210735e+01 2.135190e-12 -4.673100e-10 2.135190e-12 1.210735e+01" pbc="T T T"
O 1.168832e+00 -1.820405e-11 1.341539e-11 2.659887e-01 -4.819562e-15 -6.117963e-14
C 8.695810e-03 -1.816692e-11 1.295894e-11 -1.512870e+00 2.209749e-15 -3.179658e-13
O -1.167855e+00 -1.813837e-11 1.252704e-11 1.246955e+00 2.374573e-14 4.061735e-13
3
Lattice="1.800000e+01 0.000000e+00 0.000000e+00 0.000000e+00 1.800000e+01 0.000000e+00 0.000000e+00 0.000000e+00 1.800000e+01" Properties=species:S:1:pos:R:3:force:R:3 energy=2.183697e-03 dipole="2.049447e-02 8.464160e-15 -9.789242e-15" pol="2.576034e+01 -6.101616e-11 -2.798215e-12 -6.101616e-11 1.200354e+01 -2.864707e-12 -2.798215e-12 -2.864707e-12 1.200354e+01" pbc="T T T"
O 1.161418e+00 -1.845178e-11 1.367851e-11 8.691241e-01 7.055927e-14 1.581120e-13
C 5.931052e-03 -1.848178e-11 1.323269e-11 -8.641813e-01 -1.474964e-13 -1.012073e-13
O -1.158364e+00 -1.852990e-11 1.281255e-11 -4.886099e-03 7.673266e-14 -1.510055e-13
3
Lattice="1.800000e+01 0.000000e+00 0.000000e+00 0.000000e+00 1.800000e+01 0.000000e+00 0.000000e+00 0.000000e+00 1.800000e+01" Properties=species:S:1:pos:R:3:force:R:3 energy=4.602787e-03 dipole="-1.573295e-02 1.058625e-14 6.136056e-16" pol="2.622272e+01 -1.496618e-10 -1.535476e-10 -1.496618e-10 1.212739e+01 2.600371e-12 -1.535476e-10 2.600371e-12 1.212739e+01" pbc="T T T"
O 1.173991e+00 -1.908648e-11 1.440123e-11 -1.034270e+00 -2.630826e-13 -1.855249e-13
C 2.396455e-04 -1.941451e-11 1.409744e-11 6.214658e-01 4.344403e-14 1.096409e-13
O -1.166665e+00 -1.976218e-11 1.378493e-11 4.127774e-01 1.551623e-13 1.360227e-13
3
Lattice="1.800000e+01 0.000000e+00 0.000000e+00 0.000000e+00 1.800000e+01 0.000000e+00 0.000000e+00 0.000000e+00 1.800000e+01" Properties=species:S:1:pos:R:3:force:R:3 energy=4.606519e-03 dipole="-3.514137e-02 -3.498805e-15 6.547159e-17" pol="2.602556e+01 -2.627019e-10 3.917314e-10 -2.627019e-10 1.207662e+01 2.734636e-12 3.917314e-10 2.734636e-12 1.207662e+01" pbc="T T T"
O 1.170632e+00 -1.929676e-11 1.460112e-11 -9.324896e-01 -2.702855e-13 -1.586543e-13
C -2.800378e-03 -1.970644e-11 1.437924e-11 1.428436e+00 4.186459e-13 1.880504e-13
O -1.161022e+00 -2.012395e-11 1.414516e-11 -4.960281e-01 -1.519144e-13 -5.055937e-14
3
Lattice="1.800000e+01 0.000000e+00 0.000000e+00 0.000000e+00 1.800000e+01 0.000000e+00 0.000000e+00 0.000000e+00 1.800000e+01" Properties=species:S:1:pos:R:3:force:R:3 energy=-1.259684e-04 dipole="-1.257419e-02 2.056404e-14 -7.078959e-15" pol="2.602223e+01 3.085285e-10 2.663931e-10 3.085285e-10 1.207362e+01 -2.110696e-12 2.663931e-10 -2.110696e-12 1.207362e+01" pbc="T T T"
O 1.169304e+00 -1.946856e-11 1.475846e-11 -4.920001e-01 -7.874040e-14 -1.212206e-13
C 7.503547e-04 -1.990525e-11 1.458228e-11 5.108982e-01 -1.065215e-13 1.863568e-13
O -1.162361e+00 -2.038836e-11 1.442014e-11 -1.892964e-02 1.473279e-13 -3.137359e-14
3
Lattice="1.800000e+01 0.000000e+00 0.000000e+00 0.000000e+00 1.800000e+01 0.000000e+00 0.000000e+00 0.000000e+00 1.800000e+01" Properties=species:S:1:pos:R:3:force:R:3 energy=1.431909e-03 dipole="1.802550e-02 -1.145330e-14 1.609191e-14" pol="2.608203e+01 1.276772e-11 -3.793755e-10 1.276772e-11 1.208997e+01 9.302907e-13 -3.793755e-10 9.302907e-13 1.208997e+01" pbc="T T T"
O 1.168828e+00 -1.956141e-11 1.486131e-11 -1.704800e-02 -1.978788e-13 -4.778122e-14
C 5.569455e-03 -2.007308e-11 1.473331e-11 -7.263464e-01 1.112703e-13 -1.983609e-13
O -1.165504e+00 -2.054077e-11 1.458884e-11 7.434357e-01 1.641613e-13 1.204794e-13
3
Lattice="1.800000e+01 0.000000e+00 0.000000e+00 0.000000e+00 1.800000e+01 0.000000e+00 0.000000e+00 0.000000e+00 1.800000e+01" Properties=species:S:1:pos:R:3:force:R:3 energy=-9.164458e-04 dipole="-8.567561e-03 1.165710e-14 2.600657e-15" pol="2.596778e+01 -3.174542e-10 1.626438e-10 -3.174542e-10 1.205885e+01 2.739216e-12 1.626438e-10 2.739216e-12 1.205885e+01" pbc="T T T"
O 1.167845e+00 -2.007538e-11 1.552511e-11 -2.779670e-01 -9.702440e-14 2.802460e-14
C 1.382830e-03 -2.071264e-11 1.548157e-11 3.507589e-01 -2.068562e-15 -1.538895e-14
O -1.161377e+00 -2.137665e-11 1.543306e-11 -7.281465e-02 -2.738016e-14 -4.847173e-14
3
Lattice="1.800000e+01 0.000000e+00 0.000000e+00 0.000000e+00 1.800000e+01 0.000000e+00 0.000000e+00 0.000000e+00 1.800000e+01" Properties=species:S:1:pos:R:3:force:R:3 energy=3.149122e-03 dipole="-7.314587e-03 3.041026e-14 -8.195453e-15" pol="2.620234e+01 -4.254090e-10 -9.987388e-10 -4.254090e-10 1.212154e+01 3.087154e-13 -9.987388e-10 3.087154e-13 1.212154e+01" pbc="T T T"
O 1.173051e+00 -2.023679e-11 1.577363e-11 -8.243294e-01 -1.638941e-13 -8.379399e-14
C 1.572399e-03 -2.089890e-11 1.571362e-11 2.897058e-01 -3.076113e-13 1.430783e-13
O -1.166725e+00 -2.162812e-11 1.567126e-11 5.346100e-01 6.500057e-13 -9.921970e-14
3
Lattice="1.800000e+01 0.000000e+00 0.000000e+00 0.000000e+00 1.800000e+01 0.000000e+00 0.000000e+00 0.000000e+00 1.800000e+01" Properties=species:S:1:pos:R:3:force:R:3 energy=4.014496e-03 dipole="-9.527981e-03 -3.849488e-14 1.216508e-14" pol="2.622475e+01 -2.807443e-10 -1.336025e-10 -2.807443e-10 1.212759e+01 1.398767e-12 -1.336025e-10 1.398767e-12 1.212759e+01" pbc="T T T"
O 1.173681e+00 -2.075684e-11 1.660096e-11 -9.204082e-01 -8.782861e-13 -7.813617e-14
C 1.221499e-03 -2.155291e-11 1.647043e-11 3.761968e-01 7.805039e-13 -1.212813e-13
O -1.167092e+00 -2.228225e-11 1.631556e-11 5.441948e-01 2.357439e-14 1.448110e-13
3
Lattice="1.800000e+01 0.000000e+00 0.000000e+00 0.000000e+00 1.800000e+01 0.000000e+00 0.000000e+00 0.000000e+00 1.800000e+01" Properties=species:S:1:pos:R:3:force:R:3 energy=4.129735e-03 dipole="2.727382e-02 8.529676e-15 1.001683e-14" pol="2.573873e+01 -3.803047e-10 -4.148310e-10 -3.803047e-10 1.199822e+01 1.272623e-12 -4.148310e-10 1.272623e-12 1.199822e+01" pbc="T T T"
O 1.160509e+00 -2.131253e-11 1.741928e-11 1.078358e+00 5.826412e-13 2.880133e-13
C 6.987465e-03 -2.202864e-11 1.712504e-11 -1.153830e+00 -5.677293e-13 -3.255030e-13
O -1.158249e+00 -2.273487e-11 1.682099e-11 7.554516e-02 -1.879588e-14 -8.508520e-16
3
Lattice="1.800000e+01 0.000000e+00 0.000000e+00 0.000000e+00 1.800000e+01 0.000000e+00 0.000000e+00 0.000000e+00 1.800000e+01" Properties=species:S:1:pos:R:3:force:R:3 energy=3.625233e-03 dipole="2.862142e-02 5.203729e-14 -7.781068e-15" pol="2.608576e+01 -4.019170e-11 -3.724591e-10 -4.019170e-11 1.209198e+01 -3.324501e-12 -3.724591e-10 -3.324501e-12 1.209198e+01" pbc="T T T"
O 1.168247e+00 -2.192952e-11 1.825114e-11 1.994726e-01 3.532440e-13 -4.578256e-14
C 7.240062e-03 -2.249014e-11 1.781374e-11 -1.153194e+00 -1.124099e-12 -1.194975e-13
O -1.166176e+00 -2.313394e-11 1.740700e-11 9.537848e-01 8.031044e-13 1.530568e-13
3
Lattice="1.800000e+01 0.000000e+00 0.000000e+00 0.000000e+00 1.800000e+01 0.000000e+00 0.000000e+00 0.000000e+00 1.800000e+01" Properties=species:S:1:pos:R:3:force:R:3 energy=4.982252e-03 dipole="-2.929180e-02 1.205495e-14 -1.894355e-14" pol="2.572483e+01 -6.151083e-10 3.261858e-11 -6.151083e-10 1.199464e+01 -6.393355e-13 3.261858e-11 -6.393355e-13 1.199464e+01" pbc="T T T"
O 1.163501e+00 -2.227323e-11 1.868550e-11 -8.027381e-02 6.731922e-14 -1.866387e-13
C -1.843216e-03 -2.277551e-11 1.822018e-11 1.241732e+00 3.838669e-13 5.933220e-13
O -1.154611e+00 -2.330611e-11 1.777395e-11 -1.161536e+00 -4.168981e-13 -5.161514e-13
3
Lattice="1.800000e+01 0.000000e+00 0.000000e+00 0.000000e+00 1.800000e+01 0.000000e+00 0.000000e+00 0.000000e+00 1.800000e+01" Properties=species:S:1:pos:R:3:force:R:3 energy=3.170212e-03 dipole="-1.388317e-02 1.675614e-14 -1.514628e-14" pol="2.618313e+01 8.823927e-11 5.608025e-11 8.823927e-11 1.211672e+01 1.827205e-12 5.608025e-11 1.827205e-12 1.211672e+01" pbc="T T T"
O 1.172998e+00 -2.418225e-11 2.096968e-11 -9.054773e-01 2.794987e-13 -4.044865e-13
C 5.346112e-04 -2.403137e-11 2.053146e-11 5.514418e-01 -4.079168e-13 3.335349e-13
O -1.165894e+00 -2.392557e-11 2.011242e-11 3.540090e-01 1.137682e-13 5.577579e-14
3
Lattice="1.800000e+01 0.000000e+00 0.000000e+00 0.000000e+00 1.800000e+01 0.000000e+00 0.000000e+00 0.000000e+00 1.800000e+01" Properties=species:S:1:pos:R:3:force:R:3 energy=4.644943e-03 dipole="-1.468559e-02 -1.837995e-14 6.384440e-15" pol="2.622807e+01 3.812601e-10 -3.025506e-10 3.812601e-10 1.212874e+01 2.264525e-12 -3.025506e-10 2.264525e-12 1.212874e+01" pbc="T T T"
O 1.174051e+00 -2.495050e-11 2.179530e-11 -1.026949e+00 2.022786e-13 -9.415581e-14
C 4.051954e-04 -2.455129e-11 2.154407e-11 5.796390e-01 1.523483e-13 -1.338055e-16
O -1.166849e+00 -2.410551e-11 2.127174e-11 4.472846e-01 -3.394866e-13 2.042647e-13
3
Lattice="1.800000e+01 0.000000e+00 0.000000e+00 0.000000e+00 1.800000e+01 0.000000e+00 0.000000e+00 0.000000e+00 1.800000e+01" Properties=species:S:1:pos:R:3:force:R:3 energy=3.586899e-03 dipole="1.958530e-03 -1.925624e-14 8.860835e-15" pol="2.563682e+01 1.107803e-10 -3.546959e-11 1.107803e-10 1.196941e+01 -3.363127e-13 -3.546959e-11 -3.363127e-13 1.196941e+01" pbc="T T T"
O 1.159721e+00 -2.530781e-11 2.220128e-11 7.950399e-01 -4.409532e-13 1.315157e-13
C 3.033821e-03 -2.480221e-11 2.205019e-11 -8.398439e-02 2.677897e-13 -5.746015e-14
O -1.154493e+00 -2.425890e-11 2.188767e-11 -7.110502e-01 1.989035e-13 -7.177198e-14
3
Lattice="1.800000e+01 0.000000e+00 0.000000e+00 0.000000e+00 1.800000e+01 0.000000e+00 0.000000e+00 0.000000e+00 1.800000e+01" Properties=species:S:1:pos:R:3:force:R:3 energy=1.406615e-03 dipole="3.795219e-03 1.145994e-15 -4.927230e-15" pol="2.614480e+01 4.203899e-11 -6.172737e-10 4.203899e-11 1.210613e+01 1.487707e-12 -6.172737e-10 1.487707e-12 1.210613e+01" pbc="T T T"
O 1.171104e+00 -2.564838e-11 2.261102e-11 -4.655676e-01 2.726546e-13 -6.429034e-14
C 3.328034e-03 -2.503271e-11 2.252604e-11 -1.515266e-01 9.251602e-15 9.023499e-14
O -1.166096e+00 -2.442097e-11 2.244975e-11 6.171021e-01 -3.510182e-13 -5.684466e-15
3
Lattice="1.800000e+01 0.000000e+00 0.000000e+00 0.000000e+00 1.800000e+01 0.000000e+00 0.000000e+00 0.000000e+00 1.800000e+01" Properties=species:S:1:pos:R:3:force:R:3 energy=-1.526055e-04 dipole="-2.440680e-03 -2.119845e-14 8.543308e-15" pol="2.578472e+01 -3.388782e-10 -4.340595e-10 -3.388782e-10 1.200945e+01 9.927323e-13 -4.340595e-10 9.927323e-13 1.200945e+01" pbc="T T T"
O 1.163345e+00 -2.610680e-11 2.325248e-11 3.121598e-01 -3.388610e-13 -1.874571e-14
C 2.347449e-03 -2.543366e-11 2.326128e-11 1.025111e-01 2.612000e-13 -1.174781e-13
O -1.157600e+00 -2.471472e-11 2.325489e-11 -4.146779e-01 9.758353e-14 5.630947e-15
3
Lattice="1.800000e+01 0.000000e+00 0.000000e+00 0.000000e+00 1.800000e+01 0.000000e+00 0.000000e+00 0.000000e+00 1.800000e+01" Properties=species:S:1:pos:R:3:force:R:3 energy=3.489530e-03 dipole="-2.517815e-02 2.873366e-14 -9.256654e-16" pol="2.612024e+01 6.204377e-10 -4.979946e-10 6.204377e-10 1.210084e+01 -1.327364e-12 -4.979946e-10 -1.327364e-12 1.210084e+01" pbc="T T T"
O 1.172220e+00 -2.678606e-11 2.427446e-11 -9.708697e-01 7.356529e-13 1.219377e-13
C -1.243278e-03 -2.605235e-11 2.442419e-11 1.009385e+00 -8.377769e-13 -3.768082e-14
O -1.163780e+00 -2.535094e-11 2.458059e-11 -3.856884e-02 9.315170e-14 -1.023773e-14
3
Lattice="1.800000e+01 0.000000e+00 0.000000e+00 0.000000e+00 1.800000e+01 0.000000e+00 0.000000e+00 0.000000e+00 1.800000e+01" Properties=species:S:1:pos:R:3:force:R:3 energy=1.504610e-03 dipole="2.271584e-02 3.239471e-15 -1.052928e-14" pol="2.602869e+01 -1.147987e-11 3.680649e-10 -1.147987e-11 1.207605e+01 -2.010828e-12 3.680649e-10 -2.010828e-12 1.207605e+01" pbc="T T T"
O 1.167338e+00 -2.699973e-11 2.460855e-11 2.174792e-01 2.062980e-14 -7.871123e-14
C 6.303730e-03 -2.629352e-11 2.483090e-11 -9.224035e-01 2.670211e-13 2.370934e-13
O -1.164564e+00 -2.561967e-11 2.506506e-11 7.049795e-01 -3.075556e-13 -1.589134e-13
3
Lattice="1.800000e+01 0.000000e+00 0.000000e+00 0.000000e+00 1.800000e+01 0.000000e+00 0.000000e+00 0.000000e+00 1.800000e+01" Properties=species:S:1:pos:R:3:force:R:3 energy=4.260105e-03 dipole="-1.274679e-02 -1.708720e-14 8.596641e-15" pol="2.563887e+01 -2.413517e-10 2.301221e-10 -2.413517e-10 1.197020e+01 2.943917e-13 2.301221e-10 2.943917e-13 1.197020e+01" pbc="T T T"
O 1.160618e+00 -2.726868e-11 2.506185e-11 4.780667e-01 -3.872828e-13 -1.235264e-13
C 7.437193e-04 -2.666195e-11 2.540270e-11 5.466464e-01 -4.195833e-14 -2.353311e-13
O -1.153670e+00 -2.601151e-11 2.573374e-11 -1.024747e+00 4.322408e-13 2.645648e-13
3
Lattice="1.800000e+01 0.000000e+00 0.000000e+00 0.000000e+00 1.800000e+01 0.000000e+00 0.000000e+00 0.000000e+00 1.800000e+01" Properties=species:S:1:pos:R:3:force:R:3 energy=7.427556e-03 dipole="-2.782450e-02 3.737301e-14 2.231681e-15" pol="2.624163e+01 -5.039286e-10 -5.007166e-10 -5.039286e-10 1.213362e+01 -1.041715e-12 -5.007166e-10 -1.041715e-12 1.213362e+01" pbc="T T T"
O 1.175089e+00 -2.787585e-11 2.604674e-11 -1.303921e+00 7.676836e-13 4.586398e-13
C -1.675340e-03 -2.733694e-11 2.649071e-11 1.096684e+00 -8.802694e-13 -3.623804e-13
O -1.166326e+00 -2.685585e-11 2.694475e-11 2.071925e-01 1.676550e-13 -9.238984e-14
3
Lattice="1.800000e+01 0.000000e+00 0.000000e+00 0.000000e+00 1.800000e+01 0.000000e+00 0.000000e+00 0.000000e+00 1.800000e+01" Properties=species:S:1:pos:R:3:force:R:3 energy=2.065411e-03 dipole="-1.773287e-02 6.661199e-15 3.505961e-15" pol="2.574265e+01 2.205582e-10 -2.387607e-11 2.205582e-10 1.199858e+01 -4.266740e-13 -2.387607e-11 -4.266740e-13 1.199858e+01" pbc="T T T"
O 1.163264e+00 -2.826436e-11 2.669479e-11 1.058893e-01 -8.162126e-14 -8.498939e-14
C -4.052116e-05 -2.781855e-11 2.715083e-11 7.495366e-01 -2.857931e-13 -2.674313e-13
O -1.155728e+00 -2.737319e-11 2.760897e-11 -8.554751e-01 3.946319e-13 3.673155e-13
3
Lattice="1.800000e+01 0.000000e+00 0.000000e+00 0.000000e+00 1.800000e+01 0.000000e+00 0.000000e+00 0.000000e+00 1.800000e+01" Properties=species:S:1:pos:R:3:force:R:3 energy=4.604273e-03 dipole="2.872505e-02 -1.723872e-14 -1.283303e-14" pol="2.573436e+01 1.292656e-10 3.697698e-10 1.292656e-10 1.199717e+01 2.019659e-12 3.697698e-10 2.019659e-12 1.199717e+01" pbc="T T T"
O 1.160320e+00 -2.849507e-11 2.708827e-11 1.122896e+00 -4.352469e-13 -4.309354e-13
C 7.213705e-03 -2.809894e-11 2.753147e-11 -1.216047e+00 5.020346e-13 4.293771e-13
O -1.158229e+00 -2.769002e-11 2.798029e-11 9.322709e-02 -6.055348e-14 -1.400935e-15
3
Lattice="1.800000e+01 0.000000e+00 0.000000e+00 0.000000e+00 1.800000e+01 0.000000e+00 0.000000e+00 0.000000e+00 1.800000e+01" Properties=species:S:1:pos:R:3:force:R:3 energy=-8.771169e-05 dipole="1.393363e-03 -3.169207e-14 8.398173e-15" pol="2.577976e+01 -4.077071e-10 -4.091257e-10 -4.077071e-10 1.200811e+01 -1.340386e-12 -4.091257e-10 -1.340386e-12 1.200811e+01" pbc="T T T"
O 1.163007e+00 -2.904315e-11 2.815816e-11 4.054955e-01 -3.150640e-13 1.322955e-14
C 2.946848e-03 -2.887117e-11 2.851712e-11 -5.854287e-02 4.549927e-13 -1.324063e-13
O -1.157713e+00 -2.864041e-11 2.885751e-11 -3.469487e-01 -1.767695e-13 1.029952e-13
3
Lattice="1.800000e+01 0.000000e+00 0.000000e+00 0.000000e+00 1.800000e+01 0.000000e+00 0.000000e+00 0.000000e+00 1.800000e+01" Properties=species:S:1:pos:R:3:force:R:3 energy=-2.591595e-04 dipole="8.492657e-03 3.711788e-14 -1.789436e-14" pol="2.604251e+01 -4.198375e-10 4.922733e-10 -4.198375e-10 1.207889e+01 -1.865042e-12 4.922733e-10 -1.865042e-12 1.207889e+01" pbc="T T T"
O 1.168523e+00 -2.941061e-11 2.884804e-11 -1.169429e-01 3.529071e-13 -1.333259e-13
C 4.066004e-03 -2.928451e-11 2.906672e-11 -3.440472e-01 -6.085889e-13 3.103579e-13
O -1.164069e+00 -2.923758e-11 2.932030e-11 4.610110e-01 2.402551e-13 -2.735136e-13
3
Lattice="1.800000e+01 0.000000e+00 0.000000e+00 0.000000e+00 1.800000e+01 0.000000e+00 0.000000e+00 0.000000e+00 1.800000e+01" Properties=species:S:1:pos:R:3:force:R:3 energy=2.231960e-03 dipole="-3.365985e-03 -5.087877e-15 6.362019e-15" pol="2.568075e+01 -1.506698e-10 -6.696826e-10 -1.506698e-10 1.198133e+01 1.014538e-12 -6.696826e-10 1.014538e-12 1.198133e+01" pbc="T T T"
O 1.161034e+00 -3.022927e-11 3.018596e-11 5.646293e-01 2.425397e-14 7.370294e-14
C 2.204161e-03 -3.034508e-11 3.026880e-11 1.434728e-01 9.061772e-14 -1.316691e-13
O -1.155182e+00 -3.045218e-11 3.033897e-11 -7.081114e-01 -7.419139e-14 8.505596e-14
3
Lattice="1.800000e+01 0.000000e+00 0.000000e+00 0.000000e+00 1.800000e+01 0.000000e+00 0.000000e+00 0.000000e+00 1.800000e+01" Properties=species:S:1:pos:R:3:force:R:3 energy=-1.282802e-03 dipole="2.534832e-03 -3.412174e-14 1.105511e-14" pol="2.590451e+01 -4.866812e-10 -3.472180e-10 -4.866812e-10 1.204174e+01 6.438601e-14 -3.472180e-10 6.438601e-14 1.204174e+01" pbc="T T T"
O 1.165766e+00 -3.050786e-11 3.063145e-11 1.079668e-01 -2.665648e-13 8.029371e-14
C 3.126397e-03 -3.077232e-11 3.072121e-11 -1.046844e-01 4.999180e-13 -1.849509e-13
O -1.160607e+00 -3.096564e-11 3.078711e-11 -3.275364e-03 -3.072935e-13 1.553364e-13
3
Lattice="1.800000e+01 0.000000e+00 0.000000e+00 0.000000e+00 1.800000e+01 0.000000e+00 0.000000e+00 0.000000e+00 1.800000e+01" Properties=species:S:1:pos:R:3:force:R:3 energy=2.028622e-03 dipole="-9.369657e-03 2.635792e-14 -1.159876e-14" pol="2.570085e+01 -3.344410e-10 -1.194150e-10 -3.344410e-10 1.198689e+01 -4.064246e-13 -1.194150e-10 -4.064246e-13 1.198689e+01" pbc="T T T"
O 1.161838e+00 -3.084279e-11 3.110620e-11 3.859044e-01 2.673963e-13 -1.078961e-13
C 1.267471e-03 -3.118747e-11 3.121034e-11 3.983024e-01 -2.208499e-13 6.845237e-14
O -1.155283e+00 -3.158404e-11 3.133116e-11 -7.842329e-01 -4.562459e-14 5.411743e-14
3
Lattice="1.800000e+01 0.000000e+00 0.000000e+00 0.000000e+00 1.800000e+01 0.000000e+00 0.000000e+00 0.000000e+00 1.800000e+01" Properties=species:S:1:pos:R:3:force:R:3 energy=3.845872e-03 dipole="-2.609890e-02 -4.809133e-14 1.826370e-14" pol="2.612745e+01 -1.171891e-10 1.743596e-10 -1.171891e-10 1.210287e+01 2.839802e-12 1.743596e-10 2.839802e-12 1.210287e+01" pbc="T T T"
O 1.172433e+00 -3.112361e-11 3.146358e-11 -1.005216e+00 -7.112838e-13 2.251306e-13
C -1.389197e-03 -3.163339e-11 3.165578e-11 1.045278e+00 1.049071e-12 -3.193481e-13
O -1.163883e+00 -3.206368e-11 3.182270e-11 -4.011607e-02 -2.888797e-13 1.812047e-13
3
Lattice="1.800000e+01 0.000000e+00 0.000000e+00 0.000000e+00 1.800000e+01 0.000000e+00 0.000000e+00 0.000000e+00 1.800000e+01" Properties=species:S:1:pos:R:3:force:R:3 energy=2.890396e-03 dipole="-1.917988e-02 6.095109e-15 -3.848850e-15" pol="2.614402e+01 -1.190126e-10 4.161032e-10 -1.190126e-10 1.210665e+01 1.019583e-14 4.161032e-10 1.019583e-14 1.210665e+01" pbc="T T T"
O 1.172420e+00 -3.145271e-11 3.178829e-11 -9.137858e-01 -2.559534e-13 5.604948e-14
C -2.991586e-04 -3.198171e-11 3.205488e-11 7.661651e-01 6.599966e-14 -6.713575e-14
O -1.164690e+00 -3.254794e-11 3.233906e-11 1.475812e-01 2.714649e-13 -9.886006e-14
3
Lattice="1.800000e+01 0.000000e+00 0.000000e+00 0.000000e+00 1.800000e+01 0.000000e+00 0.000000e+00 0.000000e+00 1.800000e+01" Properties=species:S:1:pos:R:3:force:R:3 energy=6.536777e-03 dipole="3.766730e-02 -3.100259e-16 -8.155046e-15" pol="2.577202e+01 5.065126e-10 1.106632e-10 5.065126e-10 1.200837e+01 -7.243690e-13 1.106632e-10 -7.243690e-13 1.200837e+01" pbc="T T T"
O 1.160609e+00 -3.261277e-11 3.298129e-11 1.224353e+00 4.937071e-13 -3.337762e-13
C 8.615102e-03 -3.329185e-11 3.340099e-11 -1.586899e+00 -5.765740e-13 4.854952e-13
O -1.159571e+00 -3.393592e-11 3.381916e-11 3.626427e-01 -3.712405e-14 -1.284896e-13
3
Lattice="1.800000e+01 0.000000e+00 0.000000e+00 0.000000e+00 1.800000e+01 0.000000e+00 0.000000e+00 0.000000e+00 1.800000e+01" Properties=species:S:1:pos:R:3:force:R:3 energy=2.472285e-03 dipole="-1.788484e-02 -2.698660e-14 7.994978e-15" pol="2.572587e+01 9.764990e-11 8.142682e-10 9.764990e-11 1.199404e+01 1.918173e-12 8.142682e-10 1.918173e-12 1.199404e+01" pbc="T T T"
O 1.162891e+00 -3.320402e-11 3.365420e-11 1.459331e-01 -6.607317e-14 -2.526974e-14
C -6.300288e-05 -3.384266e-11 3.398316e-11 7.577510e-01 6.383265e-13 -2.965561e-13
O -1.155338e+00 -3.444819e-11 3.430371e-11 -9.037335e-01 -5.952515e-13 3.672593e-13
3
Lattice="1.800000e+01 0.000000e+00 0.000000e+00 0.000000e+00 1.800000e+01 0.000000e+00 0.000000e+00 0.000000e+00 1.800000e+01" Properties=species:S:1:pos:R:3:force:R:3 energy=7.803347e-03 dipole="3.665092e-02 2.548249e-14 -1.294900e-14" pol="2.617490e+01 -4.054271e-10 -9.446679e-11 -4.054271e-10 1.211700e+01 3.165043e-12 -9.446679e-11 3.165043e-12 1.211700e+01" pbc="T T T"
O 1.169724e+00 -3.355445e-11 3.407589e-11 1.482803e-01 1.398746e-13 2.677894e-14
C 8.519451e-03 -3.413042e-11 3.430163e-11 -1.458943e+00 -8.804621e-13 3.472665e-13
O -1.168613e+00 -3.473305e-11 3.453841e-11 1.310730e+00 7.543530e-13 -2.844571e-13
3
Lattice="1.800000e+01 0.000000e+00 0.000000e+00 0.000000e+00 1.800000e+01 0.000000e+00 0.000000e+00 0.000000e+00 1.800000e+01" Properties=species:S:1:pos:R:3:force:R:3 energy=3.745723e-03 dipole="-2.468732e-02 8.187939e-16 -6.707698e-15" pol="2.572853e+01 4.585715e-10 -2.963214e-10 4.585715e-10 1.199524e+01 -7.152082e-13 -2.963214e-10 -7.152082e-13 1.199524e+01" pbc="T T T"
O 1.163332e+00 -3.414851e-11 3.473300e-11 1.939753e-03 2.163451e-13 -7.293335e-14
C -1.124567e-03 -3.465372e-11 3.483635e-11 1.045800e+00 1.775586e-13 -1.531560e-14
O -1.154980e+00 -3.519066e-11 3.495220e-11 -1.047806e+00 -3.167890e-13 8.616631e-14
3
Lattice="1.800000e+01 0.000000e+00 0.000000e+00 0.000000e+00 1.800000e+01 0.000000e+00 0.000000e+00 0.000000e+00 1.800000e+01" Properties=species:S:1:pos:R:3:force:R:3 energy=-1.036147e-04 dipole="1.406869e-02 1.289396e-14 -5.659673e-15" pol="2.600682e+01 1.206435e-10 3.653633e-10 1.206435e-10 1.206956e+01 -7.444153e-13 3.653633e-10 -7.444153e-13 1.206956e+01" pbc="T T T"
O 1.167381e+00 -3.437812e-11 3.497622e-11 8.927340e-02 4.001459e-14 -1.666356e-14
C 4.941408e-03 -3.487645e-11 3.506084e-11 -5.728845e-01 -3.388185e-13 5.814645e-14
O -1.163584e+00 -3.538835e-11 3.514868e-11 4.836469e-01 2.537737e-13 -1.629398e-14
3
Lattice="1.800000e+01 0.000000e+00 0.000000e+00 0.000000e+00 1.800000e+01 0.000000e+00 0.000000e+00 0.000000e+00 1.800000e+01" Properties=species:S:1:pos:R:3:force:R:3 energy=2.005800e-03 dipole="1.025223e-02 6.689119e-16 8.905502e-17" pol="2.615344e+01 2.341665e-10 -6.485479e-12 2.341665e-10 1.210861e+01 7.316158e-14 -6.485479e-12 7.316158e-14 1.210861e+01" pbc="T T T"
O 1.170909e+00 9.196956e-17 1.367377e-17 -3.556300e-01 1.762070e-15 -1.895378e-14
C 4.348167e-03 -2.913737e-17 -8.582927e-18 -4.088946e-01 3.970841e-14 -2.665254e-14
O -1.166665e+00 1.033623e-16 -4.439310e-17 7.645457e-01 7.202110e-16 -1.123900e-16
3
Lattice="1.800000e+01 0.000000e+00 0.000000e+00 0.000000e+00 1.800000e+01 0.000000e+00 0.000000e+00 0.000000e+00 1.800000e+01" Properties=species:S:1:pos:R:3:force:R:3 energy=3.853111e-03 dipole="1.980340e-02 -3.466091e-15 -3.566820e-16" pol="2.568595e+01 -1.864033e-10 4.325615e-10 -1.864033e-10 1.198334e+01 4.778653e-13 4.325615e-10 4.778653e-13 1.198334e+01" pbc="T T T"
O 1.159771e+00 -1.499751e-15 -1.613624e-15 1.053765e+00 -4.830604e-14 -1.846351e-14
C 5.816444e-03 -5.425521e-16 -1.022846e-15 -8.438100e-01 4.165287e-14 5.354679e-15
O -1.156632e+00 2.414031e-15 -4.080375e-16 -2.099011e-01 -7.633282e-15 1.873381e-14
3
Lattice="1.800000e+01 0.000000e+00 0.000000e+00 0.000000e+00 1.800000e+01 0.000000e+00 0.000000e+00 0.000000e+00 1.800000e+01" Properties=species:S:1:pos:R:3:force:R:3 energy=2.487859e-03 dipole="2.227605e-03 2.460239e-15 9.194212e-16" pol="2.618695e+01 1.418526e-10 -4.396906e-11 1.418526e-10 1.211735e+01 2.071559e-12 -4.396906e-11 2.071559e-12 1.211735e+01" pbc="T T T"
O 1.172143e+00 -3.694645e-15 -1.038003e-14 -5.993818e-01 -2.767942e-15 -4.178054e-14
C 3.081258e-03 4.032966e-15 -9.417601e-15 -8.839708e-02 -8.691710e-16 4.255118e-14
O -1.166949e+00 1.251550e-14 -9.085100e-15 6.877831e-01 -1.615670e-14 -3.183261e-14
3
Lattice="1.800000e+01 0.000000e+00 0.000000e+00 0.000000e+00 1.800000e+01 0.000000e+00 0.000000e+00 0.000000e+00 1.800000e+01" Properties=species:S:1:pos:R:3:force:R:3 energy=-7.158112e-05 dipole="2.483590e-03 -2.464629e-15 4.679821e-15" pol="2.577995e+01 -1.795467e-10 -9.659224e-11 -1.795467e-10 1.200816e+01 1.154235e-12 -9.659224e-11 1.154235e-12 1.200816e+01" pbc="T T T"
O 1.162947e+00 -3.994411e-13 -1.643053e-13 4.280357e-01 -1.368419e-13 1.708349e-15
C 3.117117e-03 -6.668746e-14 -5.315335e-14 -1.043842e-01 -3.366776e-14 2.528680e-15
O -1.157781e+00 2.647598e-13 5.677286e-14 -3.236444e-01 1.629249e-13 5.679885e-14
3
Lattice="1.800000e+01 0.000000e+00 0.000000e+00 0.000000e+00 1.800000e+01 0.000000e+00 0.000000e+00 0.000000e+00 1.800000e+01" Properties=species:S:1:pos:R:3:force:R:3 energy=3.774983e-03 dipole="1.354792e-03 5.033339e-16 -7.509669e-15" pol="2.622875e+01 -6.509883e-11 1.145837e-10 -6.509883e-11 1.212849e+01 -1.426176e-12 1.145837e-10 -1.426176e-12 1.212849e+01" pbc="T T T"
O 1.173131e+00 -5.104041e-13 -2.677725e-13 -7.173314e-01 2.731823e-13 1.913308e-13
C 2.943121e-03 -1.123703e-13 -7.876959e-14 -5.342488e-02 -7.612980e-15 6.077055e-14
O -1.167834e+00 2.862921e-13 1.155588e-13 7.707587e-01 -2.399581e-13 -4.383698e-14
3
Lattice="1.800000e+01 0.000000e+00 0.000000e+00 0.000000e+00 1.800000e+01 0.000000e+00 0.000000e+00 0.000000e+00 1.800000e+01" Properties=species:S:1:pos:R:3:force:R:3 energy=3.511879e-03 dipole="-4.001944e-03 -3.850399e-15 3.310787e-15" pol="2.621891e+01 -3.319938e-10 -5.468227e-10 -3.319938e-10 1.212588e+01 1.029263e-13 -5.468227e-10 1.029263e-13 1.212588e+01" pbc="T T T"
O 1.173228e+00 -6.776982e-13 -5.234124e-13 -7.992277e-01 3.155994e-13 2.413079e-13
C 2.095823e-03 -2.399634e-13 -1.509368e-13 1.581179e-01 -4.244794e-14 -1.064537e-13
O -1.167295e+00 2.026779e-13 2.175111e-13 6.411027e-01 -3.372575e-13 -1.979640e-13
3
Lattice="1.800000e+01 0.000000e+00 0.000000e+00 0.000000e+00 1.800000e+01 0.000000e+00 0.000000e+00 0.000000e+00 1.800000e+01" Properties=species:S:1:pos:R:3:force:R:3 energy=4.841198e-03 dipole="1.582397e-02 -6.635796e-15 -1.085703e-14" pol="2.622962e+01 -3.884060e-10 2.205383e-10 -3.884060e-10 1.212924e+01 -6.174214e-13 2.205383e-10 -6.174214e-13 1.212924e+01" pbc="T T T"
O 1.172271e+00 -7.574627e-13 -6.346870e-13 -4.277167e-01 1.858009e-13 1.079011e-13
C 5.232824e-03 -3.462371e-13 -2.099901e-13 -6.244545e-01 1.933677e-13 2.844389e-13
O -1.168693e+00 6.783909e-14 2.248170e-13 1.052198e+00 -4.180989e-13 -4.172609e-13
3
Lattice="1.800000e+01 0.000000e+00 0.000000e+00 0.000000e+00 1.800000e+01 0.000000e+00 0.000000e+00 0.000000e+00 1.800000e+01" Properties=species:S:1:pos:R:3:force:R:3 energy=7.497634e-03 dipole="2.944859e-02 -5.234070e-15 -1.986297e-14" pol="2.623213e+01 -5.392928e-10 5.477087e-10 -5.392928e-10 1.213129e+01 -6.141299e-13 5.477087e-10 -6.141299e-13 1.213129e+01" pbc="T T T"
O 1.171467e+00 -8.175966e-13 -7.361949e-13 -1.493427e-01 1.027937e-13 7.108834e-14
C 7.388681e-03 -5.062272e-13 -2.927764e-13 -1.162348e+00 2.371527e-13 5.589588e-13
O -1.169508e+00 -1.960315e-13 1.692919e-13 1.311739e+00 -3.386486e-13 -5.123036e-13
3
Lattice="1.800000e+01 0.000000e+00 0.000000e+00 0.000000e+00 1.800000e+01 0.000000e+00 0.000000e+00 0.000000e+00 1.800000e+01" Properties=species:S:1:pos:R:3:force:R:3 energy=2.930596e-03 dipole="-2.224907e-02 1.070025e-15 9.651440e-15" pol="2.574110e+01 -6.044919e-10 3.197001e-11 -6.044919e-10 1.199845e+01 1.160053e-12 3.197001e-11 1.160053e-12 1.199845e+01" pbc="T T T"
O 1.163482e+00 -8.341904e-13 -7.675171e-13 1.872615e-02 9.840949e-16 -1.866558e-14
C -7.457975e-04 -6.168758e-13 -3.316028e-13 9.407643e-01 -1.921602e-13 -3.875039e-13
O -1.155417e+00 -3.972366e-13 9.736917e-14 -9.595514e-01 2.169996e-13 3.644872e-13
3
Lattice="1.800000e+01 0.000000e+00 0.000000e+00 0.000000e+00 1.800000e+01 0.000000e+00 0.000000e+00 0.000000e+00 1.800000e+01" Properties=species:S:1:pos:R:3:force:R:3 energy=-1.133605e-03 dipole="-2.016776e-03 -2.416270e-16 7.936270e-16" pol="2.586924e+01 1.711862e-10 8.566414e-11 1.711862e-10 1.203224e+01 1.747673e-12 8.566414e-11 1.747673e-12 1.203224e+01" pbc="T T T"
O 1.165236e+00 -8.608672e-13 -7.866704e-13 1.036403e-01 -7.432510e-14 7.207544e-14
C 2.412803e-03 -7.068127e-13 -3.799282e-13 8.369687e-02 -2.041417e-14 -5.900058e-14
O -1.159541e+00 -5.522507e-13 2.674535e-14 -1.873429e-01 4.301167e-15 5.425716e-14
3
Lattice="1.800000e+01 0.000000e+00 0.000000e+00 0.000000e+00 1.800000e+01 0.000000e+00 0.000000e+00 0.000000e+00 1.800000e+01" Properties=species:S:1:pos:R:3:force:R:3 energy=4.846491e-03 dipole="2.959854e-02 4.275893e-15 -1.198302e-14" pol="2.573404e+01 -2.274284e-10 -6.932634e-10 -2.274284e-10 1.199717e+01 3.592928e-13 -6.932634e-10 3.592928e-13 1.199717e+01" pbc="T T T"
O 1.160258e+00 -8.921140e-13 -7.873307e-13 1.143496e+00 -7.767080e-14 -3.847551e-13
C 7.349742e-03 -7.702661e-13 -4.223568e-13 -1.253128e+00 6.188830e-14 5.252196e-13
O -1.158270e+00 -6.543372e-13 -3.441029e-14 1.097104e-01 1.060207e-13 -1.334713e-13
3
Lattice="1.800000e+01 0.000000e+00 0.000000e+00 0.000000e+00 1.800000e+01 0.000000e+00 0.000000e+00 0.000000e+00 1.800000e+01" Properties=species:S:1:pos:R:3:force:R:3 energy=8.684764e-03 dipole="4.341507e-02 4.449913e-15 -2.020883e-14" pol="2.611209e+01 1.073899e-10 9.240062e-10 1.073899e-10 1.210122e+01 1.450049e-12 9.240062e-10 1.450049e-12 1.210122e+01" pbc="T T T"
O 1.167878e+00 -9.691163e-13 -7.765563e-13 4.569281e-01 2.715813e-14 -2.025892e-13
C 9.575443e-03 -8.817762e-13 -4.858857e-13 -1.744342e+00 5.052890e-14 6.538077e-13
O -1.167562e+00 -8.050486e-13 -1.696432e-13 1.287500e+00 -2.431032e-14 -4.322632e-13
3
Lattice="1.800000e+01 0.000000e+00 0.000000e+00 0.000000e+00 1.800000e+01 0.000000e+00 0.000000e+00 0.000000e+00 1.800000e+01" Properties=species:S:1:pos:R:3:force:R:3 energy=2.671764e-03 dipole="2.772402e-02 1.466913e-15 -1.042864e-14" pol="2.583040e+01 -3.800098e-10 -1.475753e-10 -3.800098e-10 1.202309e+01 -1.168524e-12 -1.475753e-10 -1.168524e-12 1.202309e+01" pbc="T T T"
O 1.162555e+00 -1.180356e-12 -7.546998e-13 8.428447e-01 -5.780514e-14 -1.711840e-13
C 7.067762e-03 -1.086239e-12 -6.184444e-13 -1.157871e+00 8.325652e-15 2.884839e-13
O -1.160357e+00 -1.001512e-12 -4.585964e-13 3.151017e-01 1.634862e-15 -1.077560e-13
3
Lattice="1.800000e+01 0.000000e+00 0.000000e+00 0.000000e+00 1.800000e+01 0.000000e+00 0.000000e+00 0.000000e+00 1.800000e+01" Properties=species:S:1:pos:R:3:force:R:3 energy=8.229755e-03 dipole="3.994232e-02 -1.014461e-14 6.959934e-15" pol="2.614899e+01 -5.856159e-10 2.489619e-10 -5.856159e-10 1.211057e+01 -4.100398e-12 2.489619e-10 -4.100398e-12 1.211057e+01" pbc="T T T"
O 1.168931e+00 -1.259554e-12 -7.676174e-13 2.858235e-01 -9.447615e-14 1.497492e-14
C 9.034405e-03 -1.160065e-12 -6.467703e-13 -1.596114e+00 2.600534e-13 -2.908873e-14
O -1.168208e+00 -1.042735e-12 -5.426884e-13 1.310367e+00 -1.378351e-13 -1.074809e-14
3
Lattice="1.800000e+01 0.000000e+00 0.000000e+00 0.000000e+00 1.800000e+01 0.000000e+00 0.000000e+00 0.000000e+00 1.800000e+01" Properties=species:S:1:pos:R:3:force:R:3 energy=5.327804e-03 dipole="3.320476e-02 -9.724532e-15 8.750618e-15" pol="2.575978e+01 -1.014991e-10 -8.428926e-10 -1.014991e-10 1.200452e+01 -1.668467e-12 -8.428926e-10 -1.668467e-12 1.200452e+01" pbc="T T T"
O 1.160614e+00 -1.396721e-12 -7.966804e-13 1.155611e+00 -2.408707e-13 -7.554888e-14
C 7.915997e-03 -1.258176e-12 -7.167859e-13 -1.400969e+00 2.501605e-13 -5.595861e-14
O -1.159052e+00 -1.105142e-12 -6.572415e-13 2.454455e-01 -8.097035e-14 7.609711e-14
3
Lattice="1.800000e+01 0.000000e+00 0.000000e+00 0.000000e+00 1.800000e+01 0.000000e+00 0.000000e+00 0.000000e+00 1.800000e+01" Properties=species:S:1:pos:R:3:force:R:3 energy=1.884828e-03 dipole="2.366976e-02 1.774119e-15 -1.938661e-14" pol="2.604438e+01 2.941435e-10 -1.633122e-10 2.941435e-10 1.208035e+01 3.329735e-12 -1.633122e-10 3.329735e-12 1.208035e+01" pbc="T T T"
O 1.167630e+00 -1.501795e-12 -8.185112e-13 1.980158e-01 4.405237e-14 -8.089396e-14
C 6.454616e-03 -1.317098e-12 -7.812234e-13 -9.590522e-01 3.834556e-14 2.153713e-13
O -1.164972e+00 -1.144766e-12 -7.212723e-13 7.610927e-01 -5.947178e-14 -4.802684e-14
3
Lattice="1.800000e+01 0.000000e+00 0.000000e+00 0.000000e+00 1.800000e+01 0.000000e+00 0.000000e+00 0.000000e+00 1.800000e+01" Properties=species:S:1:pos:R:3:force:R:3 energy=1.322266e-03 dipole="1.725660e-02 -7.270949e-15 -4.677620e-15" pol="2.577645e+01 -1.254250e-10 -2.657180e-10 -1.254250e-10 1.200769e+01 -4.020763e-13 -2.657180e-10 -4.020763e-13 1.200769e+01" pbc="T T T"
O 1.161981e+00 -1.638329e-12 -8.684669e-13 7.550321e-01 -1.657278e-13 2.650003e-15
C 5.425764e-03 -1.413066e-12 -8.442214e-13 -7.259339e-01 1.960369e-13 6.321916e-14
O -1.158549e+00 -1.180536e-12 -8.123243e-13 -2.904987e-02 6.915676e-14 -6.689969e-14
3
Lattice="1.800000e+01 0.000000e+00 0.000000e+00 0.000000e+00 1.800000e+01 0.000000e+00 0.000000e+00 0.000000e+00 1.800000e+01" Properties=species:S:1:pos:R:3:force:R:3 energy=1.778445e-03 dipole="2.598221e-02 -8.621972e-15 -5.429286e-15" pol="2.588618e+01 6.047235e-11 5.040359e-10 6.047235e-11 1.203799e+01 5.080220e-13 5.040359e-10 5.080220e-13 1.203799e+01" pbc="T T T"
O 1.163924e+00 -1.929321e-12 -9.787810e-13 6.569897e-01 -9.724646e-14 -4.264840e-14
C 6.801216e-03 -1.595838e-12 -9.790802e-13 -1.076564e+00 2.987440e-13 3.270226e-14
O -1.161526e+00 -1.263973e-12 -9.780063e-13 4.196444e-01 -8.659902e-14 -4.167913e-14
3
Lattice="1.800000e+01 0.000000e+00 0.000000e+00 0.000000e+00 1.800000e+01 0.000000e+00 0.000000e+00 0.000000e+00 1.800000e+01" Properties=species:S:1:pos:R:3:force:R:3 energy=2.512368e-03 dipole="-7.837646e-03 7.599512e-15 -9.847209e-15" pol="2.567912e+01 2.044615e-10 -5.583512e-11 2.044615e-10 1.198096e+01 -7.124181e-14 -5.583512e-11 -7.124181e-14 1.198096e+01" pbc="T T T"
O 1.161254e+00 -2.366211e-12 -1.131092e-12 4.747940e-01 -1.254490e-13 -5.315770e-14
C 1.506404e-03 -1.962880e-12 -1.218995e-12 3.341889e-01 -1.887661e-13 1.352650e-13
O -1.154880e+00 -1.568241e-12 -1.288978e-12 -8.090045e-01 3.380341e-13 -1.459946e-13
3
Lattice="1.800000e+01 0.000000e+00 0.000000e+00 0.000000e+00 1.800000e+01 0.000000e+00 0.000000e+00 0.000000e+00 1.800000e+01" Properties=species:S:1:pos:R:3:force:R:3 energy=3.805531e-03 dipole="8.861945e-04 -2.181683e-15 6.755537e-15" pol="2.563012e+01 7.404837e-10 -1.084366e-10 7.404837e-10 1.196760e+01 -1.579454e-12 -1.084366e-10 -1.579454e-12 1.196760e+01" pbc="T T T"
O 1.159631e+00 -2.686235e-12 -1.151519e-12 7.898935e-01 -2.483155e-13 2.495492e-13
C 2.865904e-03 -2.369425e-12 -1.400380e-12 -3.799851e-02 7.042656e-15 -9.731732e-14
O -1.154278e+00 -2.048973e-12 -1.661177e-12 -7.518926e-01 1.947425e-13 -1.343261e-13
3
Lattice="1.800000e+01 0.000000e+00 0.000000e+00 0.000000e+00 1.800000e+01 0.000000e+00 0.000000e+00 0.000000e+00 1.800000e+01" Properties=species:S:1:pos:R:3:force:R:3 energy=3.690072e-03 dipole="2.043722e-02 1.066393e-14 -2.326070e-15" pol="2.616741e+01 -1.035091e-10 5.792396e-10 -1.035091e-10 1.211301e+01 -6.234019e-13 5.792396e-10 -6.234019e-13 1.211301e+01" pbc="T T T"
O 1.170592e+00 -3.152507e-12 -1.164884e-12 -1.792667e-01 6.313549e-14 -1.448221e-13
C 5.956477e-03 -3.073764e-12 -1.625163e-12 -8.137382e-01 -1.422270e-13 -1.265390e-13
O -1.167559e+00 -3.019106e-12 -2.066577e-12 9.930449e-01 -5.422208e-15 2.925235e-13
3
Lattice="1.800000e+01 0.000000e+00 0.000000e+00 0.000000e+00 1.800000e+01 0.000000e+00 0.000000e+00 0.000000e+00 1.800000e+01" Properties=species:S:1:pos:R:3:force:R:3 energy=5.512200e-03 dipole="3.814570e-02 1.309645e-14 1.128071e-14" pol="2.585536e+01 -2.733664e-11 6.044581e-11 -2.733664e-11 1.203104e+01 1.212365e-12 6.044581e-11 1.212365e-12 1.203104e+01" pbc="T T T"
O 1.162459e+00 -3.723808e-12 -1.282614e-12 1.010739e+00 4.005420e-14 3.138284e-13
C 8.702019e-03 -3.729218e-12 -1.731074e-12 -1.588390e+00 -1.818413e-13 -5.313784e-13
O -1.161490e+00 -3.756560e-12 -2.177427e-12 5.777485e-01 1.339662e-13 1.218487e-13
3
Lattice="1.800000e+01 0.000000e+00 0.000000e+00 0.000000e+00 1.800000e+01 0.000000e+00 0.000000e+00 0.000000e+00 1.800000e+01" Properties=species:S:1:pos:R:3:force:R:3 energy=1.006768e-02 dipole="-4.425585e-02 -8.606558e-15 -1.130364e-14" pol="2.572489e+01 -7.248066e-10 -2.582553e-10 -7.248066e-10 1.199643e+01 -6.702131e-13 -2.582553e-10 -6.702131e-13 1.199643e+01" pbc="T T T"
O 1.164307e+00 -3.989882e-12 -1.379457e-12 -3.717380e-01 -6.793631e-14 -1.493092e-13
C -4.179480e-03 -4.059728e-12 -1.777036e-12 1.877606e+00 2.016307e-13 6.257015e-13
O -1.153666e+00 -4.113820e-12 -2.175963e-12 -1.505975e+00 -1.363179e-13 -5.775495e-13
3
Lattice="1.800000e+01 0.000000e+00 0.000000e+00 0.000000e+00 1.800000e+01 0.000000e+00 0.000000e+00 0.000000e+00 1.800000e+01" Properties=species:S:1:pos:R:3:force:R:3 energy=7.218701e-03 dipole="2.926452e-02 3.442046e-15 2.372975e-14" pol="2.622494e+01 5.199257e-10 -9.451776e-10 5.199257e-10 1.212934e+01 -2.080043e-12 -9.451776e-10 -2.080043e-12 1.212934e+01" pbc="T T T"
O 1.171317e+00 -4.502828e-12 -1.696595e-12 -1.354649e-01 -1.113726e-13 1.821561e-13
C 7.357453e-03 -4.822578e-12 -1.838219e-12 -1.156244e+00 -2.135814e-13 -3.859154e-13
O -1.169338e+00 -5.134787e-12 -2.016326e-12 1.291758e+00 2.719306e-13 3.112203e-13
3
Lattice="1.800000e+01 0.000000e+00 0.000000e+00 0.000000e+00 1.800000e+01 0.000000e+00 0.000000e+00 0.000000e+00 1.800000e+01" Properties=species:S:1:pos:R:3:force:R:3 energy=4.177350e-03 dipole="1.034871e-02 3.496569e-15 -1.268082e-14" pol="2.622762e+01 -2.552977e-10 1.283677e-12 -2.552977e-10 1.212839e+01 -1.346599e-12 1.283677e-12 -1.346599e-12 1.212839e+01" pbc="T T T"
O 1.172562e+00 -5.214488e-12 -1.708976e-12 -5.345424e-01 -2.004197e-13 -1.089824e-13
C 4.364534e-03 -5.651831e-12 -1.840583e-12 -4.084435e-01 -2.134981e-13 2.335769e-13
O -1.168337e+00 -6.096149e-12 -1.943018e-12 9.430038e-01 3.285590e-13 -4.944281e-14
3
Lattice="1.800000e+01 0.000000e+00 0.000000e+00 0.000000e+00 1.800000e+01 0.000000e+00 0.000000e+00 0.000000e+00 1.800000e+01" Properties=species:S:1:pos:R:3:force:R:3 energy=-5.801269e-04 dipole="6.291227e-03 -4.914552e-15 7.360663e-15" pol="2.582602e+01 4.028867e-11 -3.494057e-10 4.028867e-11 1.202064e+01 3.841602e-13 -3.494057e-10 3.841602e-13 1.202064e+01" pbc="T T T"
O 1.163764e+00 -5.759810e-12 -1.471020e-12 3.887318e-01 1.916547e-16 1.975791e-13
C 3.711434e-03 -6.112121e-12 -1.742288e-12 -2.627510e-01 1.878565e-14 -2.058531e-13
O -1.159050e+00 -6.452784e-12 -2.035059e-12 -1.259629e-01 -7.509673e-14 -3.017940e-14
3
Lattice="1.800000e+01 0.000000e+00 0.000000e+00 0.000000e+00 1.800000e+01 0.000000e+00 0.000000e+00 0.000000e+00 1.800000e+01" Properties=species:S:1:pos:R:3:force:R:3 energy=-1.258560e-04 dipole="-2.995049e-03 1.416525e-14 1.811250e-14" pol="2.607033e+01 -4.685216e-10 1.303879e-10 -4.685216e-10 1.208622e+01 9.798603e-13 1.303879e-10 9.798603e-13 1.208622e+01" pbc="T T T"
O 1.169831e+00 -6.775898e-12 -1.148875e-12 -4.196842e-01 1.582066e-13 -1.207629e-13
C 2.254813e-03 -6.839764e-12 -1.488160e-12 1.208366e-01 -2.151794e-13 -1.462064e-13
O -1.164023e+00 -6.932861e-12 -1.852891e-12 2.988404e-01 9.970431e-14 2.886657e-13
3
Lattice="1.800000e+01 0.000000e+00 0.000000e+00 0.000000e+00 1.800000e+01 0.000000e+00 0.000000e+00 0.000000e+00 1.800000e+01" Properties=species:S:1:pos:R:3:force:R:3 energy=3.565250e-03 dipole="-2.254635e-02 -1.832133e-14 -2.158220e-14" pol="2.614726e+01 4.208332e-10 6.999738e-12 4.208332e-10 1.210781e+01 -1.885960e-13 6.999738e-12 -1.885960e-13 1.210781e+01" pbc="T T T"
O 1.172679e+00 -7.131039e-12 -1.090215e-12 -9.852458e-01 -1.778825e-13 -3.912512e-13
C -8.331257e-04 -7.216459e-12 -1.333808e-12 9.003429e-01 2.966620e-13 3.686140e-13
O -1.164554e+00 -7.270463e-12 -1.551988e-12 8.485713e-02 -1.075283e-13 -1.287406e-13
3
Lattice="1.800000e+01 0.000000e+00 0.000000e+00 0.000000e+00 1.800000e+01 0.000000e+00 0.000000e+00 0.000000e+00 1.800000e+01" Properties=species:S:1:pos:R:3:force:R:3 energy=4.795543e-03 dipole="2.574561e-02 1.512731e-14 2.160433e-14" pol="2.617001e+01 -3.350941e-10 -9.882018e-11 -3.350941e-10 1.211423e+01 2.159302e-12 -9.882018e-11 2.159302e-12 1.211423e+01" pbc="T T T"
O 1.170313e+00 -7.209446e-12 -1.082668e-12 -7.381731e-02 9.147168e-14 1.058765e-14
C 6.792865e-03 -7.280752e-12 -1.265862e-12 -1.024945e+00 -2.791261e-13 -3.648140e-13
O -1.167915e+00 -7.378160e-12 -1.479285e-12 1.098812e+00 1.588200e-13 2.588040e-13
3
Lattice="1.800000e+01 0.000000e+00 0.000000e+00 0.000000e+00 1.800000e+01 0.000000e+00 0.000000e+00 0.000000e+00 1.800000e+01" Properties=species:S:1:pos:R:3:force:R:3 energy=5.531394e-03 dipole="-3.647711e-02 -1.318970e-14 -1.130729e-14" pol="2.580737e+01 -3.489238e-10 -2.530561e-10 -3.489238e-10 1.201781e+01 -1.130229e-13 -2.530561e-10 -1.130229e-13 1.201781e+01" pbc="T T T"
O 1.165765e+00 -7.324482e-12 -1.017770e-12 -4.275556e-01 -1.595908e-13 -1.084884e-13
C -2.979711e-03 -7.464522e-12 -1.177201e-12 1.529042e+00 3.346101e-13 2.731992e-13
O -1.156028e+00 -7.580672e-12 -1.323192e-12 -1.101581e+00 -2.798275e-13 -2.450933e-13
3
Lattice="1.800000e+01 0.000000e+00 0.000000e+00 0.000000e+00 1.800000e+01 0.000000e+00 0.000000e+00 0.000000e+00 1.800000e+01" Properties=species:S:1:pos:R:3:force:R:3 energy=7.602533e-03 dipole="4.276495e-02 1.901319e-14 2.035389e-14" pol="2.606044e+01 8.401064e-11 -6.664609e-10 8.401064e-11 1.208718e+01 -2.886605e-12 -6.664609e-10 -2.886605e-12 1.208718e+01" pbc="T T T"
O 1.166764e+00 -7.389425e-12 -9.687949e-13 5.754676e-01 2.179988e-13 2.177914e-13
C 9.460910e-03 -7.541116e-12 -1.092260e-12 -1.730662e+00 -4.356645e-13 -4.461796e-13
O -1.166369e+00 -7.721277e-12 -1.250076e-12 1.155286e+00 2.459592e-13 3.201275e-13
3
Lattice="1.800000e+01 0.000000e+00 0.000000e+00 0.000000e+00 1.800000e+01 0.000000e+00 0.000000e+00 0.000000e+00 1.800000e+01" Properties=species:S:1:pos:R:3:force:R:3 energy=8.207039e-05 dipole="1.782349e-02 2.532715e-14 4.104400e-15" pol="2.591624e+01 1.306205e-10 -4.148461e-10 1.306205e-10 1.204544e+01 2.902716e-12 -4.148461e-10 2.902716e-12 1.204544e+01" pbc="T T T"
O 1.165105e+00 -7.433277e-12 -8.975012e-13 4.010909e-01 2.263206e-13 1.785173e-13
C 5.522017e-03 -7.632022e-12 -1.026942e-12 -7.351793e-01 -2.836713e-13 -1.941985e-13
O -1.161754e+00 -7.861525e-12 -1.173637e-12 3.341367e-01 1.440590e-13 4.236530e-14
3
Lattice="1.800000e+01 0.000000e+00 0.000000e+00 0.000000e+00 1.800000e+01 0.000000e+00 0.000000e+00 0.000000e+00 1.800000e+01" Properties=species:S:1:pos:R:3:force:R:3 energy=9.368886e-03 dipole="-3.747989e-02 1.102463e-14 9.735821e-15" pol="2.622037e+01 -1.924122e-10 -4.421760e-10 -1.924122e-10 1.212933e+01 -1.718076e-12 -4.421760e-10 -1.718076e-12 1.212933e+01" pbc="T T T"
O 1.175131e+00 -7.523217e-12 -6.312991e-13 -1.430293e+00 -2.713631e-13 -9.946610e-14
C -3.203189e-03 -7.852926e-12 -8.009642e-13 1.482500e+00 1.552370e-13 -8.421247e-15
O -1.165230e+00 -8.217049e-12 -1.001241e-12 -5.226886e-02 1.492527e-13 1.488586e-13
3
Lattice="1.800000e+01 0.000000e+00 0.000000e+00 0.000000e+00 1.800000e+01 0.000000e+00 0.000000e+00 0.000000e+00 1.800000e+01" Properties=species:S:1:pos:R:3:force:R:3 energy=-1.572404e-04 dipole="-3.935129e-03 1.730255e-14 1.056650e-14" pol="2.606661e+01 -2.800513e-10 2.802988e-12 -2.800513e-10 1.208523e+01 7.481106e-13 2.802988e-12 7.481106e-13 1.208523e+01" pbc="T T T"
O 1.169800e+00 -7.659993e-12 -2.704861e-13 -4.293533e-01 -1.392607e-14 9.203194e-15
C 2.105219e-03 -8.028203e-12 -5.471094e-13 1.588572e-01 -2.357378e-13 -1.988738e-13
O -1.163885e+00 -8.432091e-12 -8.546359e-13 2.704866e-01 2.054885e-13 1.580727e-13
3
Lattice="1.800000e+01 0.000000e+00 0.000000e+00 0.000000e+00 1.800000e+01 0.000000e+00 0.000000e+00 0.000000e+00 1.800000e+01" Properties=species:S:1:pos:R:3:force:R:3 energy=6.207336e-03 dipole="2.284531e-02 5.180302e-15 -6.299316e-16" pol="2.563136e+01 4.348112e-10 4.288246e-11 4.348112e-10 1.196872e+01 -1.229394e-12 4.288246e-11 -1.229394e-12 1.196872e+01" pbc="T T T"
O 1.158340e+00 -7.716185e-12 -1.442775e-13 1.270708e+00 3.582992e-13 2.780124e-13
C 6.282212e-03 -8.091804e-12 -4.753582e-13 -9.810215e-01 -2.492118e-13 -1.204868e-13
O -1.155560e+00 -8.466532e-12 -7.971499e-13 -2.896276e-01 -6.592124e-14 -1.755805e-13
3
Lattice="1.800000e+01 0.000000e+00 0.000000e+00 0.000000e+00 1.800000e+01 0.000000e+00 0.000000e+00 0.000000e+00 1.800000e+01" Properties=species:S:1:pos:R:3:force:R:3 energy=2.867935e-03 dipole="-2.286641e-03 2.180838e-15 8.924841e-16" pol="2.565882e+01 4.139321e-11 5.264510e-10 4.139321e-11 1.197537e+01 7.573743e-14 5.264510e-10 7.573743e-14 1.197537e+01" pbc="T T T"
O 1.160467e+00 -7.824299e-12 3.275370e-14 6.455578e-01 1.287840e-13 5.250055e-14
C 2.368812e-03 -8.169004e-12 -3.349312e-13 9.775769e-02 4.569726e-14 1.327932e-13
O -1.154750e+00 -8.515155e-12 -6.976543e-13 -7.433217e-01 -1.790536e-13 -2.006240e-13
3
Lattice="1.800000e+01 0.000000e+00 0.000000e+00 0.000000e+00 1.800000e+01 0.000000e+00 0.000000e+00 0.000000e+00 1.800000e+01" Properties=species:S:1:pos:R:3:force:R:3 energy=3.636153e-03 dipole="-4.782856e-03 1.013746e-14 9.738035e-15" pol="2.622186e+01 3.934965e-10 4.886736e-10 3.934965e-10 1.212668e+01 -9.414634e-14 4.886736e-10 -9.414634e-14 1.212668e+01" pbc="T T T"
O 1.173336e+00 -8.077633e-12 3.679658e-13 -8.215115e-01 -5.349704e-14 -2.240163e-13
C 1.968267e-03 -8.301161e-12 -8.725410e-15 1.888989e-01 -1.565181e-13 -4.196935e-14
O -1.167318e+00 -8.554075e-12 -4.060403e-13 6.326042e-01 2.084020e-13 2.056827e-13
3
Lattice="1.800000e+01 0.000000e+00 0.000000e+00 0.000000e+00 1.800000e+01 0.000000e+00 0.000000e+00 0.000000e+00 1.800000e+01" Properties=species:S:1:pos:R:3:force:R:3 energy=3.631745e-03 dipole="1.477180e-02 1.512580e-14 1.264254e-14" pol="2.619538e+01 4.773588e-10 3.873463e-10 4.773588e-10 1.212004e+01 3.297207e-12 3.873463e-10 3.297207e-12 1.212004e+01" pbc="T T T"
O 1.171566e+00 -8.315547e-12 7.203332e-13 -3.657354e-01 1.076900e-13 -2.137702e-14
C 5.059673e-03 -8.450649e-12 4.837387e-13 -5.857392e-01 -3.096654e-13 -3.133351e-13
O -1.167870e+00 -8.618601e-12 2.229367e-13 9.515020e-01 2.457797e-13 3.152678e-13
3
Lattice="1.800000e+01 0.000000e+00 0.000000e+00 0.000000e+00 1.800000e+01 0.000000e+00 0.000000e+00 0.000000e+00 1.800000e+01" Properties=species:S:1:pos:R:3:force:R:3 energy=3.407271e-03 dipole="-7.721220e-04 3.692140e-15 7.369922e-15" pol="2.564166e+01 5.012782e-10 1.375411e-11 5.012782e-10 1.197074e+01 6.564807e-13 1.375411e-11 6.564807e-13 1.197074e+01" pbc="T T T"
O 1.159987e+00 -8.344821e-12 8.637675e-13 7.235431e-01 1.699371e-13 1.230219e-13
C 2.604418e-03 -8.506737e-12 6.949301e-13 3.303991e-02 -4.799609e-14 -9.109609e-14
O -1.154448e+00 -8.678441e-12 5.151428e-13 -7.565851e-01 -1.018072e-13 -1.170644e-13
3
Lattice="1.800000e+01 0.000000e+00 0.000000e+00 0.000000e+00 1.800000e+01 0.000000e+00 0.000000e+00 0.000000e+00 1.800000e+01" Properties=species:S:1:pos:R:3:force:R:3 energy=5.563996e-03 dipole="2.022630e-02 1.480852e-14 8.820052e-15" pol="2.623145e+01 1.719478e-10 -3.633075e-10 1.719478e-10 1.213008e+01 -2.013111e-12 -3.633075e-10 -2.013111e-12 1.213008e+01" pbc="T T T"
O 1.172033e+00 -8.298765e-12 1.311314e-12 -3.413091e-01 -3.316120e-14 5.637044e-14
C 5.924839e-03 -8.580172e-12 1.214639e-12 -7.980912e-01 -3.174324e-13 -1.757618e-13
O -1.168987e+00 -8.883469e-12 1.102975e-12 1.139434e+00 2.979607e-13 1.433362e-13
3
Lattice="1.800000e+01 0.000000e+00 0.000000e+00 0.000000e+00 1.800000e+01 0.000000e+00 0.000000e+00 0.000000e+00 1.800000e+01" Properties=species:S:1:pos:R:3:force:R:3 energy=7.334590e-03 dipole="-4.396225e-02 -1.396200e-14 1.085266e-15" pol="2.590237e+01 -3.794171e-10 4.719001e-10 -3.794171e-10 1.204462e+01 -5.880697e-13 4.719001e-10 -5.880697e-13 1.204462e+01" pbc="T T T"
O 1.168315e+00 -8.300536e-12 1.732065e-12 -8.014539e-01 -2.797632e-13 1.671161e-14
C -4.170137e-03 -8.629558e-12 1.593313e-12 1.819218e+00 5.329493e-13 1.977317e-13
O -1.157690e+00 -8.954856e-12 1.449882e-12 -1.017871e+00 -2.618070e-13 -1.548763e-13
3
Lattice="1.800000e+01 0.000000e+00 0.000000e+00 0.000000e+00 1.800000e+01 0.000000e+00 0.000000e+00 0.000000e+00 1.800000e+01" Properties=species:S:1:pos:R:3:force:R:3 energy=7.357215e-03 dipole="3.499371e-02 3.273509e-15 1.098458e-14" pol="2.569882e+01 -1.500128e-10 3.188486e-10 -1.500128e-10 1.198816e+01 5.073296e-13 3.188486e-10 5.073296e-13 1.198816e+01" pbc="T T T"
O 1.159116e+00 -8.397156e-12 2.542181e-12 1.362673e+00 2.127737e-13 3.497318e-13
C 8.181171e-03 -8.648498e-12 2.237356e-12 -1.489285e+00 -2.743719e-13 -3.934684e-13
O -1.157767e+00 -8.891830e-12 1.924947e-12 1.267004e-01 -5.283330e-14 -5.295207e-15
3
Lattice="1.800000e+01 0.000000e+00 0.000000e+00 0.000000e+00 1.800000e+01 0.000000e+00 0.000000e+00 0.000000e+00 1.800000e+01" Properties=species:S:1:pos:R:3:force:R:3 energy=5.225255e-03 dipole="-2.091793e-02 -9.542612e-15 -3.242096e-15" pol="2.564845e+01 2.628126e-10 -5.094430e-10 2.628126e-10 1.197323e+01 9.807177e-13 -5.094430e-10 9.807177e-13 1.197323e+01" pbc="T T T"
O 1.161291e+00 -8.422350e-12 2.806936e-12 2.844670e-01 -2.271290e-14 1.109373e-13
C -5.349736e-04 -8.639688e-12 2.456223e-12 8.960441e-01 2.722439e-13 2.603503e-13
O -1.153399e+00 -8.843750e-12 2.105784e-12 -1.180566e+00 -2.851723e-13 -3.941047e-13
3
Lattice="1.800000e+01 0.000000e+00 0.000000e+00 0.000000e+00 1.800000e+01 0.000000e+00 0.000000e+00 0.000000e+00 1.800000e+01" Properties=species:S:1:pos:R:3:force:R:3 energy=-6.587119e-04 dipole="-9.642258e-03 -3.684902e-15 6.163055e-15" pol="2.599539e+01 3.414094e-10 1.806880e-10 3.414094e-10 1.206630e+01 -9.767189e-13 1.806880e-10 -9.767189e-13 1.206630e+01" pbc="T T T"
O 1.168525e+00 -8.435647e-12 3.091279e-12 -3.679010e-01 -5.400831e-14 -8.619529e-14
C 1.206952e-03 -8.618519e-12 2.721915e-12 3.932316e-01 1.162157e-13 2.785117e-14
O -1.161941e+00 -8.797943e-12 2.342655e-12 -2.535559e-02 -8.797770e-14 1.333246e-13
3
Lattice="1.800000e+01 0.000000e+00 0.000000e+00 0.000000e+00 1.800000e+01 0.000000e+00 0.000000e+00 0.000000e+00 1.800000e+01" Properties=species:S:1:pos:R:3:force:R:3 energy=-4.463843e-04 dipole="-1.298647e-02 1.393285e-15 -8.908076e-15" pol="2.597755e+01 1.988476e-10 7.361586e-10 1.988476e-10 1.206165e+01 2.385934e-12 7.361586e-10 2.385934e-12 1.206165e+01" pbc="T T T"
O 1.168314e+00 -8.263464e-12 3.868983e-12 -3.902556e-01 -5.823456e-14 -7.070662e-14
C 6.818653e-04 -8.492234e-12 3.574373e-12 5.309880e-01 4.299105e-14 2.536329e-13
O -1.161336e+00 -8.731266e-12 3.292407e-12 -1.407663e-01 3.968994e-14 -4.589459e-14
3
Lattice="1.800000e+01 0.000000e+00 0.000000e+00 0.000000e+00 1.800000e+01 0.000000e+00 0.000000e+00 0.000000e+00 1.800000e+01" Properties=species:S:1:pos:R:3:force:R:3 energy=3.923917e-03 dipole="3.547168e-03 1.112180e-14 -6.445014e-15" pol="2.562833e+01 2.336816e-10 1.292354e-10 2.336816e-10 1.196711e+01 1.703147e-14 1.292354e-10 1.703147e-14 1.196711e+01" pbc="T T T"
O 1.159428e+00 -8.103544e-12 4.238954e-12 8.521223e-01 2.589792e-13 9.282796e-14
C 3.274507e-03 -8.405504e-12 4.041327e-12 -1.523172e-01 -1.173893e-13 1.006374e-13
O -1.154398e+00 -8.724981e-12 3.859733e-12 -6.997956e-01 -1.096648e-13 -1.419544e-13
3
Lattice="1.800000e+01 0.000000e+00 0.000000e+00 0.000000e+00 1.800000e+01 0.000000e+00 0.000000e+00 0.000000e+00 1.800000e+01" Properties=species:S:1:pos:R:3:force:R:3 energy=1.931821e-04 dipole="3.809169e-04 9.674342e-15 -1.089981e-14" pol="2.576374e+01 6.968989e-11 -4.967318e-12 6.968989e-11 1.200377e+01 -1.054898e-12 -4.967318e-12 -1.054898e-12 1.200377e+01" pbc="T T T"
O 1.162695e+00 -7.977233e-12 4.741259e-12 4.260037e-01 5.989204e-14 -6.994485e-14
C 2.781535e-03 -8.296809e-12 4.588088e-12 -1.604250e-02 -6.329922e-14 1.332508e-13
O -1.157296e+00 -8.632723e-12 4.457500e-12 -4.099601e-01 -4.150930e-14 -1.789154e-13
3
Lattice="1.800000e+01 0.000000e+00 0.000000e+00 0.000000e+00 1.800000e+01 0.000000e+00 0.000000e+00 0.000000e+00 1.800000e+01" Properties=species:S:1:pos:R:3:force:R:3 energy=8.288129e-03 dipole="-3.748024e-02 -1.112828e-14 5.054032e-15" pol="2.569547e+01 -9.838422e-11 1.008465e-09 -9.838422e-11 1.198754e+01 -3.657255e-12 1.008465e-09 -3.657255e-12 1.198754e+01" pbc="T T T"
O 1.163269e+00 -7.705925e-12 6.483384e-12 -1.668915e-01 -9.514637e-14 5.969498e-14
C -3.124117e-03 -7.896584e-12 6.175592e-12 1.596072e+00 3.585387e-13 2.117574e-13
O -1.153439e+00 -8.072846e-12 5.838911e-12 -1.429274e+00 -2.548966e-13 -2.988176e-13
3
Lattice="1.800000e+01 0.000000e+00 0.000000e+00 0.000000e+00 1.800000e+01 0.000000e+00 0.000000e+00 0.000000e+00 1.800000e+01" Properties=species:S:1:pos:R:3:force:R:3 energy=4.793555e-03 dipole="-3.439383e-02 -8.860692e-16 -2.202550e-14" pol="2.605984e+01 -6.012408e-11 4.848193e-10 -6.012408e-11 1.208574e+01 -2.648433e-12 4.848193e-10 -2.648433e-12 1.208574e+01" pbc="T T T"
O 1.171356e+00 -7.369614e-12 7.438572e-12 -1.000021e+00 -1.681694e-13 -4.688780e-13
C -2.695876e-03 -7.611364e-12 7.022568e-12 1.391263e+00 1.733367e-13 6.000211e-13
O -1.161847e+00 -7.865528e-12 6.627067e-12 -3.913192e-01 -9.439704e-14 -1.425400e-13
3
Lattice="1.800000e+01 0.000000e+00 0.000000e+00 0.000000e+00 1.800000e+01 0.000000e+00 0.000000e+00 0.000000e+00 1.800000e+01" Properties=species:S:1:pos:R:3:force:R:3 energy=4.442778e-03 dipole="-9.567838e-03 1.205755e-14 -2.425522e-14" pol="2.623744e+01 -3.192043e-10 -1.773032e-11 -3.192043e-10 1.213097e+01 -3.225364e-12 -1.773032e-11 -3.225364e-12 1.213097e+01" pbc="T T T"
O 1.173959e+00 -6.989486e-12 8.270203e-12 -9.511811e-01 -1.386618e-13 -4.433408e-13
C 1.205797e-03 -7.264663e-12 7.937988e-12 3.770945e-01 -9.385518e-14 4.755232e-13
O -1.167382e+00 -7.569242e-12 7.650480e-12 5.740705e-01 1.945360e-13 -7.915209e-14
3
Lattice="1.800000e+01 0.000000e+00 0.000000e+00 0.000000e+00 1.800000e+01 0.000000e+00 0.000000e+00 0.000000e+00 1.800000e+01" Properties=species:S:1:pos:R:3:force:R:3 energy=7.769941e-04 dipole="2.039349e-02 -7.049332e-15 1.716641e-14" pol="2.599798e+01 6.348814e-11 2.114736e-10 6.348814e-11 1.206761e+01 2.577125e-12 2.114736e-10 2.577125e-12 1.206761e+01" pbc="T T T"
O 1.166783e+00 -6.908394e-12 8.411290e-12 2.460807e-01 -1.397792e-14 1.913384e-13
C 5.926466e-03 -7.205195e-12 8.157510e-12 -8.316233e-01 -5.342563e-14 -3.700456e-13
O -1.163751e+00 -7.485405e-12 7.873581e-12 5.855941e-01 1.170329e-13 2.390901e-13
3
Lattice="1.800000e+01 0.000000e+00 0.000000e+00 0.000000e+00 1.800000e+01 0.000000e+00 0.000000e+00 0.000000e+00 1.800000e+01" Properties=species:S:1:pos:R:3:force:R:3 energy=5.493285e-03 dipole="-3.846398e-02 -1.083915e-14 4.031334e-15" pol="2.587042e+01 -2.007246e-10 4.764761e-11 -2.007246e-10 1.203516e+01 -3.126311e-13 4.764761e-11 -3.126311e-13 1.203516e+01" pbc="T T T"
O 1.167295e+00 -6.780004e-12 8.677959e-12 -6.206432e-01 -2.715846e-13 3.566697e-14
C -3.306742e-03 -7.067330e-12 8.485561e-12 1.598287e+00 5.431808e-13 1.480728e-13
O -1.157330e+00 -7.336397e-12 8.277544e-12 -9.777413e-01 -3.372656e-13 -1.811057e-13
3
Lattice="1.800000e+01 0.000000e+00 0.000000e+00 0.000000e+00 1.800000e+01 0.000000e+00 0.000000e+00 0.000000e+00 1.800000e+01" Properties=species:S:1:pos:R:3:force:R:3 energy=5.840875e-03 dipole="2.297891e-02 2.321863e-14 -2.799818e-14" pol="2.622476e+01 -4.384397e-10 -5.607132e-10 -4.384397e-10 1.212856e+01 -9.513618e-13 -5.607132e-10 -9.513618e-13 1.212856e+01" pbc="T T T"
O 1.171706e+00 -6.483592e-12 9.372710e-12 -2.675553e-01 1.012017e-13 -2.217601e-13
C 6.355075e-03 -6.701973e-12 9.250453e-12 -9.076567e-01 -5.120240e-13 3.780878e-13
O -1.168996e+00 -6.963291e-12 9.186266e-12 1.175251e+00 3.358281e-13 -1.306090e-13
3
Lattice="1.800000e+01 0.000000e+00 0.000000e+00 0.000000e+00 1.800000e+01 0.000000e+00 0.000000e+00 0.000000e+00 1.800000e+01" Properties=species:S:1:pos:R:3:force:R:3 energy=1.686438e-04 dipole="1.540681e-02 1.232961e-14 -1.405398e-14" pol="2.583939e+01 -2.154805e-10 -6.095746e-10 -2.154805e-10 1.202459e+01 -2.335164e-13 -6.095746e-10 -2.335164e-13 1.202459e+01" pbc="T T T"
O 1.163510e+00 -6.332708e-12 9.741747e-12 5.489539e-01 1.519501e-13 -1.130129e-13
C 5.131444e-03 -6.543971e-12 9.654860e-12 -6.423699e-01 -2.455649e-13 1.871896e-13
O -1.159883e+00 -6.777234e-12 9.597415e-12 9.345926e-02 1.054207e-13 -1.135363e-13
3
Lattice="1.800000e+01 0.000000e+00 0.000000e+00 0.000000e+00 1.800000e+01 0.000000e+00 0.000000e+00 0.000000e+00 1.800000e+01" Properties=species:S:1:pos:R:3:force:R:3 energy=1.877076e-03 dipole="-4.171694e-03 -1.242920e-14 2.594488e-14" pol="2.616289e+01 2.730694e-10 2.184825e-10 2.730694e-10 1.211096e+01 2.686465e-13 2.184825e-10 2.686465e-13 1.211096e+01" pbc="T T T"
O 1.171971e+00 -5.063143e-12 1.286478e-11 -6.682223e-01 -2.603188e-13 -1.566532e-14
C 2.058828e-03 -5.347709e-12 1.247798e-11 1.661354e-01 2.635601e-13 -3.473791e-13
O -1.166041e+00 -5.608058e-12 1.203326e-11 5.020784e-01 -5.313190e-14 3.331392e-13
3
Lattice="1.800000e+01 0.000000e+00 0.000000e+00 0.000000e+00 1.800000e+01 0.000000e+00 0.000000e+00 0.000000e+00 1.800000e+01" Properties=species:S:1:pos:R:3:force:R:3 energy=1.847217e-03 dipole="8.103112e-03 -1.200704e-14 3.370773e-14" pol="2.615379e+01 -1.021408e-09 3.888433e-10 -1.021408e-09 1.210862e+01 -1.947076e-12 3.888433e-10 -1.947076e-12 1.210862e+01" pbc="T T T"
O 1.171036e+00 -4.879421e-12 1.336453e-11 -4.003241e-01 -1.540233e-13 1.311911e-13
C 3.997553e-03 -5.135974e-12 1.293908e-11 -3.231497e-01 1.583277e-13 -6.151436e-13
O -1.166560e+00 -5.364626e-12 1.245025e-11 7.234905e-01 6.190898e-15 4.781880e-13
3
Lattice="1.800000e+01 0.000000e+00 0.000000e+00 0.000000e+00 1.800000e+01 0.000000e+00 0.000000e+00 0.000000e+00 1.800000e+01" Properties=species:S:1:pos:R:3:force:R:3 energy=6.404150e-03 dipole="3.405033e-02 1.389398e-14 -6.818575e-15" pol="2.615023e+01 -3.277003e-10 -5.103964e-11 -3.277003e-10 1.210999e+01 1.458905e-12 -5.103964e-11 1.458905e-12 1.210999e+01" pbc="T T T"
O 1.169330e+00 -4.652178e-12 1.400949e-11 1.539187e-01 3.478673e-14 -1.338147e-13
C 8.093239e-03 -4.855179e-12 1.348062e-11 -1.359925e+00 -3.436160e-13 -2.728655e-13
O -1.167932e+00 -5.076510e-12 1.298571e-11 1.206073e+00 2.955554e-13 3.005179e-13
3
Lattice="1.800000e+01 0.000000e+00 0.000000e+00 0.000000e+00 1.800000e+01 0.000000e+00 0.000000e+00 0.000000e+00 1.800000e+01" Properties=species:S:1:pos:R:3:force:R:3 energy=1.178936e-03 dipole="-3.893624e-03 -5.612113e-15 -2.625720e-15" pol="2.572112e+01 -3.835673e-11 1.949928e-10 -3.835673e-11 1.199227e+01 -8.154122e-13 1.949928e-10 -8.154122e-13 1.199227e+01" pbc="T T T"
O 1.161972e+00 -4.047705e-12 1.539295e-11 4.473750e-01 1.611246e-14 2.369507e-13
C 2.109563e-03 -4.269051e-12 1.473908e-11 1.650262e-01 1.475424e-13 9.835982e-14
O -1.156081e+00 -4.478400e-12 1.408314e-11 -6.124122e-01 -1.436833e-13 -3.550735e-13
3
Lattice="1.800000e+01 0.000000e+00 0.000000e+00 0.000000e+00 1.800000e+01 0.000000e+00 0.000000e+00 0.000000e+00 1.800000e+01" Properties=species:S:1:pos:R:3:force:R:3 energy=4.954083e-03 dipole="-3.754325e-02 -1.153791e-14 -3.062987e-14" pol="2.595950e+01 3.663519e-10 -6.035404e-10 3.663519e-10 1.205913e+01 -1.631263e-13 -6.035404e-10 -1.631263e-13 1.205913e+01" pbc="T T T"
O 1.169258e+00 -3.539719e-12 1.639532e-11 -8.192384e-01 -2.663368e-13 -6.464441e-13
C -3.180064e-03 -3.808885e-12 1.567399e-11 1.540530e+00 4.380889e-13 1.075852e-12
O -1.159397e+00 -4.066541e-12 1.497554e-11 -7.213836e-01 -2.234375e-13 -4.322061e-13
3
Lattice="1.800000e+01 0.000000e+00 0.000000e+00 0.000000e+00 1.800000e+01 0.000000e+00 0.000000e+00 0.000000e+00 1.800000e+01" Properties=species:S:1:pos:R:3:force:R:3 energy=1.823192e-03 dipole="-9.504143e-04 1.087488e-14 9.653979e-15" pol="2.616350e+01 -1.089315e-10 -1.845142e-10 -1.089315e-10 1.211112e+01 -3.383150e-13 -1.845142e-10 -3.383150e-13 1.211112e+01" pbc="T T T"
O 1.171792e+00 -2.220294e-12 1.889832e-11 -6.059297e-01 -1.833090e-14 -2.103832e-13
C 2.565182e-03 -2.410220e-12 1.836796e-11 3.780273e-02 -1.354887e-13 -7.536780e-14
O -1.166249e+00 -2.621134e-12 1.782036e-11 5.681250e-01 1.070427e-13 3.181455e-13
3
Lattice="1.800000e+01 0.000000e+00 0.000000e+00 0.000000e+00 1.800000e+01 0.000000e+00 0.000000e+00 0.000000e+00 1.800000e+01" Properties=species:S:1:pos:R:3:force:R:3 energy=-2.375714e-04 dipole="-7.625617e-03 7.483503e-15 4.056866e-15" pol="2.604865e+01 9.114109e-11 -1.108493e-10 9.114109e-11 1.208050e+01 8.716252e-13 -1.108493e-10 8.716252e-13 1.208050e+01" pbc="T T T"
O 1.169601e+00 -1.965820e-12 1.933560e-11 -4.588502e-01 3.095839e-14 -1.702981e-13
C 1.514526e-03 -2.148157e-12 1.885327e-11 3.086497e-01 -1.063802e-13 6.987903e-14
O -1.163269e+00 -2.355958e-12 1.836015e-11 1.501819e-01 1.273177e-13 1.452623e-13
3
Lattice="1.800000e+01 0.000000e+00 0.000000e+00 0.000000e+00 1.800000e+01 0.000000e+00 0.000000e+00 0.000000e+00 1.800000e+01" Properties=species:S:1:pos:R:3:force:R:3 energy=3.855307e-03 dipole="-3.322383e-03 8.395387e-15 -1.183043e-14" pol="2.563007e+01 4.571246e-11 2.387472e-10 4.571246e-11 1.196758e+01 2.163758e-12 2.387472e-10 2.163758e-12 1.196758e+01" pbc="T T T"
O 1.159861e+00 -1.099981e-12 2.058378e-11 6.999495e-01 2.167338e-13 8.723903e-14
C 2.197296e-03 -1.341340e-12 2.030773e-11 1.426282e-01 -1.456347e-13 1.950229e-13
O -1.154044e+00 -1.605900e-12 2.004922e-11 -8.425866e-01 2.041202e-14 -3.049718e-13
3
Lattice="1.800000e+01 0.000000e+00 0.000000e+00 0.000000e+00 1.800000e+01 0.000000e+00 0.000000e+00 0.000000e+00 1.800000e+01" Properties=species:S:1:pos:R:3:force:R:3 energy=3.011666e-03 dipole="-2.807511e-03 -9.794036e-15 4.680441e-15" pol="2.565470e+01 3.151028e-10 -3.935532e-11 3.151028e-10 1.197426e+01 -1.431240e-12 -3.935532e-11 -1.431240e-12 1.197426e+01" pbc="T T T"
O 1.160393e+00 -6.035292e-13 2.123897e-11 6.454102e-01 7.286870e-14 1.301972e-13
C 2.276676e-03 -9.095435e-13 2.111839e-11 1.201032e-01 2.136314e-13 -8.705691e-14
O -1.154636e+00 -1.190453e-12 2.098591e-11 -7.655210e-01 -2.847343e-13 -7.597946e-14
3
Lattice="1.800000e+01 0.000000e+00 0.000000e+00 0.000000e+00 1.800000e+01 0.000000e+00 0.000000e+00 0.000000e+00 1.800000e+01" Properties=species:S:1:pos:R:3:force:R:3 energy=5.666961e-03 dipole="3.346204e-02 1.011425e-14 8.583341e-15" pol="2.574744e+01 5.224772e-11 1.997446e-10 5.224772e-11 1.200120e+01 -2.933424e-12 1.997446e-10 -2.933424e-12 1.200120e+01" pbc="T T T"
O 1.160304e+00 2.345550e-13 2.259100e-11 1.194917e+00 2.331464e-13 8.354989e-14
C 7.939435e-03 -2.596685e-14 2.264482e-11 -1.414293e+00 -3.014014e-13 -6.945431e-14
O -1.158800e+00 -2.937913e-13 2.267939e-11 2.194627e-01 -3.857413e-15 7.022718e-14
3
Lattice="1.800000e+01 0.000000e+00 0.000000e+00 0.000000e+00 1.800000e+01 0.000000e+00 0.000000e+00 0.000000e+00 1.800000e+01" Properties=species:S:1:pos:R:3:force:R:3 energy=6.701289e-03 dipole="-3.808266e-02 -7.111839e-15 9.818089e-15" pol="2.577097e+01 6.175338e-10 4.255560e-10 6.175338e-10 1.200813e+01 3.770516e-13 4.255560e-10 3.770516e-13 1.200813e+01" pbc="T T T"
O 1.165012e+00 5.041654e-13 2.303233e-11 -3.680217e-01 1.530261e-14 5.658237e-14
C -3.237889e-03 2.787929e-13 2.316218e-11 1.604673e+00 2.657904e-13 -2.920778e-13
O -1.155117e+00 4.921699e-14 2.327360e-11 -1.236749e+00 -1.887114e-13 1.643834e-13
3
Lattice="1.800000e+01 0.000000e+00 0.000000e+00 0.000000e+00 1.800000e+01 0.000000e+00 0.000000e+00 0.000000e+00 1.800000e+01" Properties=species:S:1:pos:R:3:force:R:3 energy=6.431018e-03 dipole="4.152806e-02 2.922424e-14 -1.059305e-14" pol="2.598255e+01 -3.927963e-10 3.629415e-10 -3.927963e-10 1.206594e+01 -4.146020e-12 3.629415e-10 -4.146020e-12 1.206594e+01" pbc="T T T"
O 1.165086e+00 6.965041e-13 2.334410e-11 7.505420e-01 3.200719e-13 -1.666759e-13
C 9.239478e-03 5.176761e-13 2.351988e-11 -1.698961e+00 -5.953193e-13 3.420801e-13
O -1.164561e+00 2.880400e-13 2.371191e-11 9.485164e-01 3.409469e-13 -2.489410e-13
3
Lattice="1.800000e+01 0.000000e+00 0.000000e+00 0.000000e+00 1.800000e+01 0.000000e+00 0.000000e+00 0.000000e+00 1.800000e+01" Properties=species:S:1:pos:R:3:force:R:3 energy=-2.391644e-04 dipole="1.377867e-02 -1.729469e-14 3.945276e-15" pol="2.586097e+01 -1.518586e-10 -8.013621e-10 -1.518586e-10 1.203033e+01 -4.494590e-13 -8.013621e-10 -4.494590e-13 1.203033e+01" pbc="T T T"
O 1.164091e+00 1.153737e-12 2.394943e-11 4.575689e-01 -5.728185e-14 -5.467692e-14
C 4.871343e-03 9.548218e-13 2.428328e-11 -5.727201e-01 2.201512e-13 -2.904425e-14
O -1.160286e+00 7.957882e-13 2.460376e-11 1.151898e-01 -9.777445e-14 3.092881e-14
3
Lattice="1.800000e+01 0.000000e+00 0.000000e+00 0.000000e+00 1.800000e+01 0.000000e+00 0.000000e+00 0.000000e+00 1.800000e+01" Properties=species:S:1:pos:R:3:force:R:3 energy=6.989530e-03 dipole="3.159369e-02 2.286568e-14 -2.544810e-14" pol="2.567527e+01 2.823822e-10 4.623164e-10 2.823822e-10 1.198140e+01 -3.936338e-12 4.623164e-10 -3.936338e-12 1.198140e+01" pbc="T T T"
O 1.158783e+00 2.742432e-12 2.590982e-11 1.349258e+00 4.176679e-13 -6.368440e-13
C 7.636246e-03 2.469563e-12 2.648026e-11 -1.348817e+00 -5.245384e-13 8.424478e-13
O -1.157057e+00 2.166925e-12 2.707897e-11 -3.601794e-04 1.333532e-13 -4.610733e-14
3
Lattice="1.800000e+01 0.000000e+00 0.000000e+00 0.000000e+00 1.800000e+01 0.000000e+00 0.000000e+00 0.000000e+00 1.800000e+01" Properties=species:S:1:pos:R:3:force:R:3 energy=4.791380e-03 dipole="-3.471885e-02 1.771932e-14 1.849731e-14" pol="2.605249e+01 3.786622e-11 -1.093720e-10 3.786622e-11 1.208381e+01 -8.951025e-13 -1.093720e-10 -8.951025e-13 1.208381e+01" pbc="T T T"
O 1.171198e+00 3.214340e-12 2.644735e-11 -9.886409e-01 -1.107564e-13 5.418606e-13
C -2.755431e-03 2.929068e-12 2.710951e-11 1.405890e+00 5.809457e-15 -7.413275e-13
O -1.161671e+00 2.595981e-12 2.776864e-11 -4.173270e-01 9.585055e-14 2.811182e-13
3
Lattice="1.800000e+01 0.000000e+00 0.000000e+00 0.000000e+00 1.800000e+01 0.000000e+00 0.000000e+00 0.000000e+00 1.800000e+01" Properties=species:S:1:pos:R:3:force:R:3 energy=4.045825e-03 dipole="-1.292810e-02 2.484007e-14 7.457193e-16" pol="2.621585e+01 -4.687854e-10 -2.438392e-10 -4.687854e-10 1.212538e+01 7.379114e-14 -2.438392e-10 7.379114e-14 1.212538e+01" pbc="T T T"
O 1.173659e+00 3.870856e-12 2.728071e-11 -9.646374e-01 3.282189e-14 6.331070e-13
C 6.660843e-04 3.619707e-12 2.801473e-11 5.111279e-01 -3.512586e-13 -2.053265e-13
O -1.166702e+00 3.304291e-12 2.876174e-11 4.534866e-01 3.781668e-13 -4.097870e-13
3
Lattice="1.800000e+01 0.000000e+00 0.000000e+00 0.000000e+00 1.800000e+01 0.000000e+00 0.000000e+00 0.000000e+00 1.800000e+01" Properties=species:S:1:pos:R:3:force:R:3 energy=3.268875e-03 dipole="4.408455e-03 -1.246340e-15 -1.253323e-14" pol="2.564845e+01 2.481453e-10 4.845257e-11 2.481453e-10 1.197258e+01 2.476567e-12 4.845257e-11 2.476567e-12 1.197258e+01" pbc="T T T"
O 1.159824e+00 4.100312e-12 2.759823e-11 8.167791e-01 1.071302e-13 -5.907411e-13
C 3.397583e-03 3.843015e-12 2.833918e-11 -1.887720e-01 1.822491e-14 1.980801e-13
O -1.154918e+00 3.593424e-12 2.909485e-11 -6.279952e-01 -2.151319e-13 2.940325e-13
3
Lattice="1.800000e+01 0.000000e+00 0.000000e+00 0.000000e+00 1.800000e+01 0.000000e+00 0.000000e+00 0.000000e+00 1.800000e+01" Properties=species:S:1:pos:R:3:force:R:3 energy=-3.290514e-05 dipole="1.252328e-03 -1.173724e-14 6.339340e-15" pol="2.577649e+01 3.971030e-10 2.646049e-10 3.971030e-10 1.200723e+01 1.032342e-12 2.646049e-10 1.032342e-12 1.200723e+01" pbc="T T T"
O 1.162922e+00 5.356995e-12 2.933604e-11 4.110512e-01 -1.036603e-13 -1.076576e-13
C 2.905526e-03 5.171249e-12 3.001229e-11 -5.263493e-02 1.657465e-13 -1.418347e-13
O -1.157649e+00 5.011741e-12 3.067173e-11 -3.584127e-01 -1.582474e-13 2.747732e-13
3
Lattice="1.800000e+01 0.000000e+00 0.000000e+00 0.000000e+00 1.800000e+01 0.000000e+00 0.000000e+00 0.000000e+00 1.800000e+01" Properties=species:S:1:pos:R:3:force:R:3 energy=1.880387e-03 dipole="-3.097041e-03 1.944203e-14 -3.785414e-15" pol="2.569292e+01 3.463209e-10 -3.776042e-10 3.463209e-10 1.198462e+01 -2.296027e-12 -3.776042e-10 -2.296027e-12 1.198462e+01" pbc="T T T"
O 1.161275e+00 6.542536e-12 3.081119e-11 5.382272e-01 2.605898e-13 -2.618326e-13
C 2.226014e-03 6.288633e-12 3.126583e-11 1.317809e-01 -1.936402e-13 -3.441258e-14
O -1.155495e+00 6.003161e-12 3.173055e-11 -6.700168e-01 -1.534632e-14 2.294579e-13
3
Lattice="1.800000e+01 0.000000e+00 0.000000e+00 0.000000e+00 1.800000e+01 0.000000e+00 0.000000e+00 0.000000e+00 1.800000e+01" Properties=species:S:1:pos:R:3:force:R:3 energy=1.794027e-03 dipole="-2.024311e-02 1.360929e-14 -4.016703e-15" pol="2.608183e+01 -4.274611e-11 3.424281e-10 -4.274611e-11 1.209009e+01 -4.552165e-12 3.424281e-10 -4.552165e-12 1.209009e+01" pbc="T T T"
O 1.171061e+00 7.280342e-12 3.168812e-11 -7.855534e-01 -2.139696e-14 2.435342e-13
C -4.817361e-04 6.975481e-12 3.199322e-11 8.157897e-01 -3.667693e-14 -1.068700e-13
O -1.163249e+00 6.632500e-12 3.231499e-11 -3.028257e-02 1.630145e-13 -3.370069e-14
3
Lattice="1.800000e+01 0.000000e+00 0.000000e+00 0.000000e+00 1.800000e+01 0.000000e+00 0.000000e+00 0.000000e+00 1.800000e+01" Properties=species:S:1:pos:R:3:force:R:3 energy=5.858403e-03 dipole="-2.147826e-02 1.862494e-14 -2.721386e-15" pol="2.623375e+01 -3.403174e-10 2.922031e-10 -3.403174e-10 1.213081e+01 1.577899e-12 2.922031e-10 1.577899e-12 1.213081e+01" pbc="T T T"
O 1.174541e+00 8.105455e-12 3.275158e-11 -1.168211e+00 -1.041511e-13 8.652632e-14
C -6.907806e-04 7.821136e-12 3.285583e-11 8.472558e-01 -1.186147e-13 3.539100e-14
O -1.166573e+00 7.493554e-12 3.297556e-11 3.209196e-01 2.667977e-13 -5.014453e-14
3
Lattice="1.800000e+01 0.000000e+00 0.000000e+00 0.000000e+00 1.800000e+01 0.000000e+00 0.000000e+00 0.000000e+00 1.800000e+01" Properties=species:S:1:pos:R:3:force:R:3 energy=1.119090e-02 dipole="4.185011e-02 2.221414e-14 -3.068490e-15" pol="2.565396e+01 -4.476378e-10 -1.565288e-10 -4.476378e-10 1.197677e+01 -2.467904e-13 -1.565288e-10 -2.467904e-13 1.197677e+01" pbc="T T T"
O 1.157649e+00 8.574706e-12 3.334683e-11 1.646167e+00 4.152925e-13 -4.083984e-14
C 9.227274e-03 8.331177e-12 3.337006e-11 -1.793033e+00 -5.539087e-13 1.995249e-14
O -1.157128e+00 8.058077e-12 3.339739e-11 1.469648e-01 1.709782e-13 -8.946355e-14
3
Lattice="1.800000e+01 0.000000e+00 0.000000e+00 0.000000e+00 1.800000e+01 0.000000e+00 0.000000e+00 0.000000e+00 1.800000e+01" Properties=species:S:1:pos:R:3:force:R:3 energy=6.818223e-03 dipole="3.904971e-02 2.859739e-14 -5.743429e-15" pol="2.609464e+01 -4.690263e-10 -7.202741e-10 -4.690263e-10 1.209579e+01 -7.503420e-13 -7.202741e-10 -7.503420e-13 1.209579e+01" pbc="T T T"
O 1.167753e+00 8.894614e-12 3.374983e-11 4.047255e-01 1.759936e-13 -1.135661e-13
C 8.863489e-03 8.697717e-12 3.371692e-11 -1.572330e+00 -6.266562e-13 5.209801e-14
O -1.166960e+00 8.453167e-12 3.369332e-11 1.167686e+00 3.677079e-13 -1.784958e-14
3
Lattice="1.800000e+01 0.000000e+00 0.000000e+00 0.000000e+00 1.800000e+01 0.000000e+00 0.000000e+00 0.000000e+00 1.800000e+01" Properties=species:S:1:pos:R:3:force:R:3 energy=-1.079157e-03 dipole="6.333556e-03 -2.390050e-15 1.320866e-14" pol="2.596423e+01 9.666563e-10 -3.151767e-10 9.666563e-10 1.205784e+01 2.316183e-12 -3.151767e-10 2.316183e-12 1.205784e+01" pbc="T T T"
O 1.166867e+00 1.025887e-11 3.543264e-11 3.524795e-02 7.997520e-14 1.640555e-13
C 3.701720e-03 1.009727e-11 3.510149e-11 -2.594163e-01 -3.764938e-15 -1.477081e-13
O -1.162200e+00 9.940124e-12 3.475430e-11 2.241853e-01 -6.164559e-14 1.164639e-13
3
Lattice="1.800000e+01 0.000000e+00 0.000000e+00 0.000000e+00 1.800000e+01 0.000000e+00 0.000000e+00 0.000000e+00 1.800000e+01" Properties=species:S:1:pos:R:3:force:R:3 energy=1.653534e-03 dipole="-2.411672e-02 -7.138633e-15 1.142818e-15" pol="2.601542e+01 4.182131e-10 1.376599e-10 4.182131e-10 1.207262e+01 -1.676552e-12 1.376599e-10 -1.676552e-12 1.207262e+01" pbc="T T T"
O 1.169778e+00 1.072847e-11 3.596416e-11 -6.997514e-01 -1.491161e-13 -1.894345e-13
C -1.087433e-03 1.054030e-11 3.553882e-11 9.811746e-01 2.341482e-13 2.597233e-13
O -1.161517e+00 1.036000e-11 3.509837e-11 -2.814824e-01 -9.892783e-14 -7.670301e-14
3
Lattice="1.800000e+01 0.000000e+00 0.000000e+00 0.000000e+00 1.800000e+01 0.000000e+00 0.000000e+00 0.000000e+00 1.800000e+01" Properties=species:S:1:pos:R:3:force:R:3 energy=3.312570e-03 dipole="3.230441e-02 2.125520e-14 1.102721e-14" pol="2.591880e+01 -1.551922e-10 -1.969381e-11 -1.551922e-10 1.204746e+01 -1.566560e-13 -1.969381e-11 -1.566560e-13 1.204746e+01" pbc="T T T"
O 1.164239e+00 1.106893e-11 3.633886e-11 7.112292e-01 3.298648e-13 3.517277e-13
C 7.774487e-03 1.087818e-11 3.585423e-11 -1.332782e+00 -4.170338e-13 -5.001808e-13
O -1.162632e+00 1.065176e-11 3.536586e-11 6.216358e-01 2.547271e-13 2.085393e-13
3
Lattice="1.800000e+01 0.000000e+00 0.000000e+00 0.000000e+00 1.800000e+01 0.000000e+00 0.000000e+00 0.000000e+00 1.800000e+01" Properties=species:S:1:pos:R:3:force:R:3 energy=3.382215e-03 dipole="3.913831e-03 2.189401e-15 -2.629328e-15" pol="2.564445e+01 1.918410e-10 -3.242841e-10 1.918410e-10 1.197149e+01 2.668583e-12 -3.242841e-10 2.668583e-12 1.197149e+01" pbc="T T T"
O 1.159780e+00 -1.704752e-14 -4.535250e-14 8.167976e-01 -1.197280e-14 -4.904324e-14
C 3.338315e-03 -2.991661e-15 -6.366895e-15 -1.676835e-01 -1.168709e-14 -6.180424e-14
O -1.154780e+00 9.470059e-15 3.220014e-14 -6.491035e-01 4.437072e-14 7.732934e-15
3
Lattice="1.800000e+01 0.000000e+00 0.000000e+00 0.000000e+00 1.800000e+01 0.000000e+00 0.000000e+00 0.000000e+00 1.800000e+01" Properties=species:S:1:pos:R:3:force:R:3 energy=3.895834e-03 dipole="1.932536e-02 -2.828814e-15 -1.604354e-15" pol="2.568146e+01 -5.164588e-10 -3.049219e-11 -5.164588e-10 1.198209e+01 -9.677751e-13 -3.049219e-11 -9.677751e-13 1.198209e+01" pbc="T T T"
O 1.159699e+00 -4.934322e-14 -1.080738e-13 1.055259e+00 -9.224397e-14 -9.945535e-14
C 5.741935e-03 -2.166272e-14 -1.679911e-14 -8.239496e-01 5.037244e-14 1.381164e-14
O -1.156503e+00 9.121765e-15 7.468687e-14 -2.312578e-01 8.894763e-15 4.145639e-14
3
Lattice="1.800000e+01 0.000000e+00 0.000000e+00 0.000000e+00 1.800000e+01 0.000000e+00 0.000000e+00 0.000000e+00 1.800000e+01" Properties=species:S:1:pos:R:3:force:R:3 energy=3.155958e-03 dipole="4.153236e-03 8.710705e-15 -5.237552e-15" pol="2.565159e+01 -2.281140e-10 -3.919242e-10 -2.281140e-10 1.197343e+01 -4.934778e-13 -3.919242e-10 -4.934778e-13 1.197343e+01" pbc="T T T"
O 1.159929e+00 -7.182758e-14 -1.384908e-13 8.028582e-01 -4.279399e-14 -3.146221e-14
C 3.375982e-03 -2.968608e-14 -2.260758e-14 -1.777633e-01 -3.068906e-14 6.944134e-14
O -1.154957e+00 7.566515e-15 9.789478e-14 -6.250836e-01 7.856159e-14 7.066796e-14
3
Lattice="1.800000e+01 0.000000e+00 0.000000e+00 0.000000e+00 1.800000e+01 0.000000e+00 0.000000e+00 0.000000e+00 1.800000e+01" Properties=species:S:1:pos:R:3:force:R:3 energy=4.545691e-03 dipole="-3.637887e-02 -2.184569e-15 1.146508e-14" pol="2.592903e+01 1.627503e-10 6.024585e-10 1.627503e-10 1.205074e+01 1.818173e-12 6.024585e-10 1.818173e-12 1.205074e+01" pbc="T T T"
O 1.168519e+00 -2.276646e-13 -3.185943e-13 -7.238007e-01 7.223667e-14 1.305030e-13
C -2.980133e-03 -8.233922e-14 -4.156002e-14 1.499058e+00 -2.511821e-13 -3.432165e-13
O -1.158774e+00 5.655637e-14 2.336737e-13 -7.753490e-01 1.429811e-13 1.678223e-13
3
Lattice="1.800000e+01 0.000000e+00 0.000000e+00 0.000000e+00 1.800000e+01 0.000000e+00 0.000000e+00 0.000000e+00 1.800000e+01" Properties=species:S:1:pos:R:3:force:R:3 energy=2.060601e-03 dipole="2.200727e-02 -1.163754e-14 -1.303382e-14" pol="2.578303e+01 -3.741726e-10 1.517985e-10 -3.741726e-10 1.200979e+01 1.578387e-12 1.517985e-10 1.578387e-12 1.200979e+01" pbc="T T T"
O 1.161839e+00 -5.321568e-13 -5.102988e-13 8.420447e-01 -3.179252e-13 -3.573938e-13
C 6.169364e-03 -1.783409e-13 -9.440879e-14 -9.250585e-01 3.716143e-13 3.715403e-13
O -1.158964e+00 1.895246e-13 3.288408e-13 8.307465e-02 -6.849617e-14 -1.744835e-14
3
Lattice="1.800000e+01 0.000000e+00 0.000000e+00 0.000000e+00 1.800000e+01 0.000000e+00 0.000000e+00 0.000000e+00 1.800000e+01" Properties=species:S:1:pos:R:3:force:R:3 energy=3.139400e-03 dipole="-4.043301e-03 -1.747529e-15 -1.023895e-15" pol="2.620710e+01 -4.682749e-10 -3.939324e-10 -4.682749e-10 1.212274e+01 9.639269e-13 -3.939324e-10 9.639269e-13 1.212274e+01" pbc="T T T"
O 1.172966e+00 -6.701464e-13 -5.891838e-13 -7.718257e-01 2.601897e-13 2.627678e-13
C 2.089467e-03 -2.301122e-13 -1.302615e-13 1.600190e-01 -1.038079e-13 -8.819069e-14
O -1.167028e+00 2.123968e-13 3.309397e-13 6.117993e-01 -1.832621e-13 -2.941879e-13
3
Lattice="1.800000e+01 0.000000e+00 0.000000e+00 0.000000e+00 1.800000e+01 0.000000e+00 0.000000e+00 0.000000e+00 1.800000e+01" Properties=species:S:1:pos:R:3:force:R:3 energy=-7.237806e-04 dipole="1.278410e-03 -3.894038e-15 -4.783020e-15" pol="2.582362e+01 -6.920747e-10 3.463289e-10 -6.920747e-10 1.201995e+01 -6.237446e-13 3.463289e-10 -6.237446e-13 1.201995e+01" pbc="T T T"
O 1.164009e+00 -7.292430e-13 -6.178247e-13 2.893106e-01 -1.300055e-13 -1.656789e-13
C 2.928893e-03 -2.652484e-13 -1.528391e-13 -5.337666e-02 7.283410e-14 5.152005e-14
O -1.158701e+00 2.064219e-13 3.181575e-13 -2.359303e-01 6.978215e-14 1.038583e-13
3
Lattice="1.800000e+01 0.000000e+00 0.000000e+00 0.000000e+00 1.800000e+01 0.000000e+00 0.000000e+00 0.000000e+00 1.800000e+01" Properties=species:S:1:pos:R:3:force:R:3 energy=2.959892e-03 dipole="2.566041e-02 -2.667549e-15 -4.853638e-15" pol="2.608732e+01 8.484078e-11 6.078501e-10 8.484078e-11 1.209207e+01 -2.238246e-12 6.078501e-10 -2.238246e-12 1.209207e+01" pbc="T T T"
O 1.168470e+00 -1.023694e-12 -7.285838e-13 1.318397e-01 -6.953867e-14 -1.073914e-13
C 6.773663e-03 -4.518289e-13 -2.613606e-13 -1.033525e+00 4.981587e-13 3.854921e-13
O -1.166048e+00 1.215284e-13 2.080497e-13 9.017421e-01 -4.473642e-13 -3.120505e-13
3
Lattice="1.800000e+01 0.000000e+00 0.000000e+00 0.000000e+00 1.800000e+01 0.000000e+00 0.000000e+00 0.000000e+00 1.800000e+01" Properties=species:S:1:pos:R:3:force:R:3 energy=1.305304e-03 dipole="1.991590e-02 -1.204724e-14 -2.265098e-15" pol="2.580566e+01 -4.587491e-10 -3.360757e-10 -4.587491e-10 1.201576e+01 -9.256175e-13 -3.360757e-10 -9.256175e-13 1.201576e+01" pbc="T T T"
O 1.162480e+00 -1.492862e-12 -7.798466e-13 7.358883e-01 -3.989085e-13 -2.232269e-13
C 5.844021e-03 -7.737034e-13 -4.755166e-13 -8.344296e-01 4.443441e-13 1.655046e-13
O -1.159362e+00 -5.380737e-14 -1.722466e-13 9.859679e-02 -9.093195e-14 -8.748883e-14
3
Lattice="1.800000e+01 0.000000e+00 0.000000e+00 0.000000e+00 1.800000e+01 0.000000e+00 0.000000e+00 0.000000e+00 1.800000e+01" Properties=species:S:1:pos:R:3:force:R:3 energy=2.729894e-04 dipole="-4.162679e-03 7.841712e-15 3.836821e-15" pol="2.609126e+01 4.176811e-10 -6.335030e-10 4.176811e-10 1.209183e+01 4.262187e-12 -6.335030e-10 4.262187e-12 1.209183e+01" pbc="T T T"
O 1.170372e+00 -1.594964e-12 -7.690219e-13 -4.942624e-01 3.649770e-13 3.168692e-14
C 2.072783e-03 -8.604297e-13 -5.416119e-13 1.674611e-01 -1.299993e-13 -5.311153e-14
O -1.164422e+00 -1.275290e-13 -3.147475e-13 3.267917e-01 -2.662718e-13 6.327400e-14
3
Lattice="1.800000e+01 0.000000e+00 0.000000e+00 0.000000e+00 1.800000e+01 0.000000e+00 0.000000e+00 0.000000e+00 1.800000e+01" Properties=species:S:1:pos:R:3:force:R:3 energy=-1.312967e-04 dipole="-9.738075e-03 5.753544e-15 2.727892e-15" pol="2.604473e+01 -7.637736e-10 6.927756e-11 -7.637736e-10 1.207953e+01 -9.060656e-13 6.927756e-11 -9.060656e-13 1.207953e+01" pbc="T T T"
O 1.169649e+00 -1.683504e-12 -7.683761e-13 -4.911332e-01 3.036812e-13 2.103082e-14
C 1.195855e-03 -9.612823e-13 -6.161363e-13 3.943867e-01 -2.609724e-13 -1.016209e-13
O -1.163040e+00 -2.435825e-13 -4.663913e-13 9.672272e-02 2.372624e-14 -7.484673e-14
3
Lattice="1.800000e+01 0.000000e+00 0.000000e+00 0.000000e+00 1.800000e+01 0.000000e+00 0.000000e+00 0.000000e+00 1.800000e+01" Properties=species:S:1:pos:R:3:force:R:3 energy=7.316124e-03 dipole="-3.461941e-02 8.525228e-15 -2.348495e-15" pol="2.569596e+01 -7.417374e-10 -6.624940e-10 -7.417374e-10 1.198734e+01 -4.111644e-13 -6.624940e-10 -4.111644e-13 1.198734e+01" pbc="T T T"
O 1.163134e+00 -1.783536e-12 -8.112050e-13 -1.120955e-01 4.388995e-14 -9.846523e-14
C -2.670298e-03 -1.152331e-12 -7.462433e-13 1.473919e+00 -7.035616e-13 -4.374548e-14
O -1.153622e+00 -5.090061e-13 -6.734380e-13 -1.361912e+00 7.000036e-13 5.262068e-14
3
Lattice="1.800000e+01 0.000000e+00 0.000000e+00 0.000000e+00 1.800000e+01 0.000000e+00 0.000000e+00 0.000000e+00 1.800000e+01" Properties=species:S:1:pos:R:3:force:R:3 energy=1.178124e-03 dipole="-5.880348e-03 -5.549896e-15 -3.551797e-15" pol="2.572491e+01 -6.750187e-10 2.170645e-10 -6.750187e-10 1.199332e+01 6.217494e-13 2.170645e-10 6.217494e-13 1.199332e+01" pbc="T T T"
O 1.162185e+00 -1.966596e-12 -1.016234e-12 3.958380e-01 -2.520391e-13 8.657398e-16
C 1.811407e-03 -1.514727e-12 -9.892212e-13 2.491113e-01 -1.390440e-14 2.535063e-14
O -1.156038e+00 -1.049154e-12 -9.574564e-13 -6.449659e-01 2.001316e-13 5.891236e-14
3
Lattice="1.800000e+01 0.000000e+00 0.000000e+00 0.000000e+00 1.800000e+01 0.000000e+00 0.000000e+00 0.000000e+00 1.800000e+01" Properties=species:S:1:pos:R:3:force:R:3 energy=2.547900e-03 dipole="2.608672e-02 -2.141577e-14 1.304516e-15" pol="2.605496e+01 1.472217e-11 -1.973727e-10 1.472217e-11 1.208343e+01 -8.905104e-13 -1.973727e-10 -8.905104e-13 1.208343e+01" pbc="T T T"
O 1.167716e+00 -2.046542e-12 -1.147006e-12 2.230650e-01 -1.222558e-13 1.497009e-14
C 6.836798e-03 -1.693299e-12 -1.104812e-12 -1.055515e+00 5.114354e-13 1.976819e-14
O -1.165343e+00 -1.311457e-12 -1.066666e-12 8.325107e-01 -4.237247e-13 8.296834e-15
3
Lattice="1.800000e+01 0.000000e+00 0.000000e+00 0.000000e+00 1.800000e+01 0.000000e+00 0.000000e+00 0.000000e+00 1.800000e+01" Properties=species:S:1:pos:R:3:force:R:3 energy=1.377181e-03 dipole="2.007660e-02 -1.176744e-14 -7.930328e-15" pol="2.605718e+01 1.813271e-10 -2.168419e-10 1.813271e-10 1.208347e+01 1.964330e-13 -2.168419e-10 1.964330e-13 1.208347e+01" pbc="T T T"
O 1.168143e+00 -2.450586e-12 -2.071258e-12 8.889050e-02 -8.943379e-14 -5.511473e-14
C 5.890991e-03 -2.646459e-12 -1.760925e-12 -8.118902e-01 2.012824e-13 2.177050e-13
O -1.165059e+00 -2.806042e-12 -1.447710e-12 7.230471e-01 -5.214202e-14 -2.121879e-13
3
Lattice="1.800000e+01 0.000000e+00 0.000000e+00 0.000000e+00 1.800000e+01 0.000000e+00 0.000000e+00 0.000000e+00 1.800000e+01" Properties=species:S:1:pos:R:3:force:R:3 energy=-1.226958e-03 dipole="4.990334e-03 -1.367257e-14 -3.874408e-15" pol="2.592254e+01 -3.750053e-10 7.382010e-10 -3.750053e-10 1.204661e+01 2.254271e-12 7.382010e-10 2.254271e-12 1.204661e+01" pbc="T T T"
O 1.166028e+00 -2.531066e-12 -2.371117e-12 1.131305e-01 -7.179227e-14 9.570651e-15
C 3.511867e-03 -2.944382e-12 -1.990321e-12 -2.055976e-01 2.024634e-13 1.035943e-13
O -1.161158e+00 -3.326407e-12 -1.605604e-12 9.248082e-02 -8.603551e-14 -9.892173e-14
3
Lattice="1.800000e+01 0.000000e+00 0.000000e+00 0.000000e+00 1.800000e+01 0.000000e+00 0.000000e+00 0.000000e+00 1.800000e+01" Properties=species:S:1:pos:R:3:force:R:3 energy=-5.147598e-04 dipole="-9.740896e-03 -2.025587e-14 7.915063e-15" pol="2.601108e+01 -2.863313e-10 2.403109e-10 -2.863313e-10 1.207051e+01 2.799902e-12 2.403109e-10 2.799902e-12 1.207051e+01" pbc="T T T"
O 1.168890e+00 -2.594314e-12 -2.497513e-12 -4.085569e-01 -3.690184e-13 1.855062e-13
C 1.196808e-03 -3.099147e-12 -2.109557e-12 3.963775e-01 4.924751e-13 -1.820091e-13
O -1.162282e+00 -3.563564e-12 -1.723754e-12 1.215454e-02 -2.239563e-13 2.148116e-14
3
Lattice="1.800000e+01 0.000000e+00 0.000000e+00 0.000000e+00 1.800000e+01 0.000000e+00 0.000000e+00 0.000000e+00 1.800000e+01" Properties=species:S:1:pos:R:3:force:R:3 energy=6.914167e-03 dipole="4.165622e-02 3.982677e-14 -1.656076e-14" pol="2.603744e+01 2.499951e-10 7.826127e-10 2.499951e-10 1.208079e+01 1.418076e-12 7.826127e-10 1.418076e-12 1.208079e+01" pbc="T T T"
O 1.166324e+00 -2.806195e-12 -2.828082e-12 6.102336e-01 5.693799e-13 -1.852359e-13
C 9.285187e-03 -3.557946e-12 -2.599732e-12 -1.691121e+00 -1.372232e-12 4.222401e-13
O -1.165789e+00 -4.358036e-12 -2.354970e-12 1.080980e+00 8.492204e-13 -2.812863e-13
3
Lattice="1.800000e+01 0.000000e+00 0.000000e+00 0.000000e+00 1.800000e+01 0.000000e+00 0.000000e+00 0.000000e+00 1.800000e+01" Properties=species:S:1:pos:R:3:force:R:3 energy=-7.906123e-04 dipole="-8.368989e-03 9.795956e-15 -3.965262e-15" pol="2.586259e+01 -3.123445e-10 1.087139e-10 -3.123445e-10 1.203055e+01 9.626102e-13 1.087139e-10 9.626102e-13 1.203055e+01" pbc="T T T"
O 1.165455e+00 -3.305355e-12 -3.402337e-12 -9.783169e-03 9.027077e-14 -8.095977e-14
C 1.417891e-03 -4.048651e-12 -3.236226e-12 3.477451e-01 6.545214e-14 4.194450e-15
O -1.159012e+00 -4.819323e-12 -3.061224e-12 -3.379855e-01 -1.205351e-13 -1.184883e-14
3
Lattice="1.800000e+01 0.000000e+00 0.000000e+00 0.000000e+00 1.800000e+01 0.000000e+00 0.000000e+00 0.000000e+00 1.800000e+01" Properties=species:S:1:pos:R:3:force:R:3 energy=4.433089e-03 dipole="1.319408e-02 -1.808175e-14 7.983256e-16" pol="2.622690e+01 2.100337e-10 4.734463e-10 2.100337e-10 1.212834e+01 2.967424e-13 4.734463e-10 2.967424e-13 1.212834e+01" pbc="T T T"
O 1.172373e+00 -3.706379e-12 -3.953832e-12 -4.749498e-01 -4.128723e-13 1.515438e-13
C 4.816578e-03 -4.323616e-12 -3.664622e-12 -5.208335e-01 1.091344e-13 4.545557e-14
O -1.168482e+00 -4.896733e-12 -3.381998e-12 9.958060e-01 2.951797e-13 -1.598171e-13
3
Lattice="1.800000e+01 0.000000e+00 0.000000e+00 0.000000e+00 1.800000e+01 0.000000e+00 0.000000e+00 0.000000e+00 1.800000e+01" Properties=species:S:1:pos:R:3:force:R:3 energy=8.814695e-05 dipole="-1.029961e-02 1.710331e-14 -5.276800e-15" pol="2.605697e+01 1.078435e-11 -1.813996e-10 1.078435e-11 1.208282e+01 1.307283e-14 -1.813996e-10 1.307283e-14 1.208282e+01" pbc="T T T"
O 1.169957e+00 -3.832151e-12 -4.099981e-12 -5.321235e-01 -5.157586e-14 1.402136e-13
C 1.107047e-03 -4.354364e-12 -3.790117e-12 4.164144e-01 -1.013423e-13 -3.458222e-14
O -1.163281e+00 -4.920331e-12 -3.466127e-12 1.156843e-01 2.173067e-13 -6.422549e-14
3
Lattice="1.800000e+01 0.000000e+00 0.000000e+00 0.000000e+00 1.800000e+01 0.000000e+00 0.000000e+00 0.000000e+00 1.800000e+01" Properties=species:S:1:pos:R:3:force:R:3 energy=6.784228e-03 dipole="4.234628e-02 2.963950e-14 -2.101181e-14" pol="2.599203e+01 1.203713e-10 1.053358e-11 1.203713e-10 1.206863e+01 -5.157466e-13 1.053358e-11 -5.157466e-13 1.206863e+01" pbc="T T T"
O 1.165262e+00 -4.405953e-12 -4.756374e-12 7.441439e-01 3.105290e-13 -2.410364e-13
C 9.385533e-03 -4.632249e-12 -4.408968e-12 -1.730223e+00 -6.843355e-13 6.716599e-13
O -1.164802e+00 -4.906308e-12 -4.038019e-12 9.861776e-01 4.385483e-13 -3.642498e-13
3
Lattice="1.800000e+01 0.000000e+00 0.000000e+00 0.000000e+00 1.800000e+01 0.000000e+00 0.000000e+00 0.000000e+00 1.800000e+01" Properties=species:S:1:pos:R:3:force:R:3 energy=2.966753e-03 dipole="3.081888e-02 -1.253361e-14 -4.058021e-16" pol="2.589504e+01 3.965188e-10 -5.941080e-11 3.965188e-10 1.204088e+01 -1.742654e-12 -5.941080e-11 -1.742654e-12 1.204088e+01" pbc="T T T"
O 1.163820e+00 -5.539257e-12 -5.775841e-12 7.407005e-01 -1.554105e-13 -7.110234e-14
C 7.561009e-03 -5.132296e-12 -5.698739e-12 -1.275656e+00 4.415154e-13 4.352857e-14
O -1.161991e+00 -4.722340e-12 -5.621498e-12 5.350366e-01 -2.164819e-13 1.672019e-14
3
Lattice="1.800000e+01 0.000000e+00 0.000000e+00 0.000000e+00 1.800000e+01 0.000000e+00 0.000000e+00 0.000000e+00 1.800000e+01" Properties=species:S:1:pos:R:3:force:R:3 energy=4.738353e-03 dipole="2.489428e-02 -2.003811e-14 5.201846e-15" pol="2.569202e+01 -2.707356e-11 -3.191441e-11 -2.707356e-11 1.198535e+01 1.400964e-12 -3.191441e-11 1.400964e-12 1.198535e+01" pbc="T T T"
O 1.159597e+00 -5.687234e-12 -5.971301e-12 1.151330e+00 -5.886633e-13 -4.641745e-14
C 6.611363e-03 -5.220068e-12 -5.894949e-12 -1.060004e+00 6.227742e-13 -1.553594e-14
O -1.157053e+00 -4.719575e-12 -5.831155e-12 -9.125992e-02 -1.244625e-13 7.933441e-14
3
Lattice="1.800000e+01 0.000000e+00 0.000000e+00 0.000000e+00 1.800000e+01 0.000000e+00 0.000000e+00 0.000000e+00 1.800000e+01" Properties=species:S:1:pos:R:3:force:R:3 energy=3.920830e-03 dipole="-3.439815e-02 2.022040e-14 8.822205e-15" pol="2.593082e+01 -1.588105e-10 -2.192669e-10 -1.588105e-10 1.205096e+01 1.615634e-12 -2.192669e-10 1.615634e-12 1.205096e+01" pbc="T T T"
O 1.168453e+00 -6.120587e-12 -6.547145e-12 -6.906998e-01 3.709754e-13 1.549514e-13
C -2.669567e-03 -5.434557e-12 -6.429529e-12 1.416924e+00 -8.223491e-13 -2.165914e-13
O -1.158941e+00 -4.756049e-12 -6.320108e-12 -7.263109e-01 4.062286e-13 1.509202e-13
3
Lattice="1.800000e+01 0.000000e+00 0.000000e+00 0.000000e+00 1.800000e+01 0.000000e+00 0.000000e+00 0.000000e+00 1.800000e+01" Properties=species:S:1:pos:R:3:force:R:3 energy=4.620235e-03 dipole="3.653265e-02 -2.028232e-14 -2.200823e-14" pol="2.595846e+01 -4.141658e-10 -1.886566e-11 -4.141658e-10 1.205871e+01 -1.777400e-12 -1.886566e-11 -1.777400e-12 1.205871e+01" pbc="T T T"
O 1.164884e+00 -6.940343e-12 -8.598118e-12 7.014963e-01 -3.607314e-13 -3.388631e-13
C 8.466542e-03 -6.290621e-12 -8.182139e-12 -1.499192e+00 8.345400e-13 7.170092e-13
O -1.163735e+00 -5.633083e-12 -7.735196e-12 7.977851e-01 -4.046672e-13 -3.657844e-13
3
Lattice="1.800000e+01 0.000000e+00 0.000000e+00 0.000000e+00 1.800000e+01 0.000000e+00 0.000000e+00 0.000000e+00 1.800000e+01" Properties=species:S:1:pos:R:3:force:R:3 energy=1.685763e-03 dipole="1.384371e-02 -1.364941e-14 2.803870e-15" pol="2.573427e+01 -1.995009e-10 2.802802e-10 -1.995009e-10 1.199611e+01 1.102541e-12 2.802802e-10 1.102541e-12 1.199611e+01" pbc="T T T"
O 1.161232e+00 -7.026267e-12 -8.988823e-12 7.925520e-01 -4.294488e-13 -1.878549e-13
C 4.890519e-03 -6.497699e-12 -8.566181e-12 -5.857824e-01 3.196738e-13 7.024636e-15
O -1.157396e+00 -5.953142e-12 -8.162044e-12 -2.067309e-01 9.287730e-14 1.187768e-13
3
Lattice="1.800000e+01 0.000000e+00 0.000000e+00 0.000000e+00 1.800000e+01 0.000000e+00 0.000000e+00 0.000000e+00 1.800000e+01" Properties=species:S:1:pos:R:3:force:R:3 energy=3.569890e-03 dipole="1.303456e-02 5.868435e-16 -1.679005e-14" pol="2.566094e+01 5.152689e-10 -1.324055e-10 5.152689e-10 1.197620e+01 2.658153e-12 -1.324055e-10 2.658153e-12 1.197620e+01" pbc="T T T"
O 1.159613e+00 -7.133717e-12 -9.336282e-12 9.714450e-01 -3.620550e-13 -3.641579e-13
C 4.759767e-03 -6.702395e-12 -8.986282e-12 -5.572575e-01 1.391415e-13 2.945487e-13
O -1.155680e+00 -6.277648e-12 -8.615113e-12 -4.141523e-01 2.183983e-13 1.024377e-14
3
Lattice="1.800000e+01 0.000000e+00 0.000000e+00 0.000000e+00 1.800000e+01 0.000000e+00 0.000000e+00 0.000000e+00 1.800000e+01" Properties=species:S:1:pos:R:3:force:R:3 energy=3.810582e-03 dipole="1.460948e-03 -5.994210e-15 1.262718e-14" pol="2.622977e+01 5.435640e-10 1.957252e-10 5.435640e-10 1.212876e+01 -9.194167e-13 1.957252e-10 -9.194167e-13 1.212876e+01" pbc="T T T"
O 1.173148e+00 -7.187453e-12 -9.530533e-12 -7.176938e-01 2.357255e-13 3.304076e-13
C 2.960048e-03 -6.831706e-12 -9.199790e-12 -5.760746e-02 8.032185e-14 -1.488213e-13
O -1.167864e+00 -6.465661e-12 -8.892761e-12 7.753038e-01 -3.488813e-13 -1.218583e-13
3
Lattice="1.800000e+01 0.000000e+00 0.000000e+00 0.000000e+00 1.800000e+01 0.000000e+00 0.000000e+00 0.000000e+00 1.800000e+01" Properties=species:S:1:pos:R:3:force:R:3 energy=1.044377e-03 dipole="6.134044e-03 -6.046073e-15 3.834677e-15" pol="2.573127e+01 1.893728e-10 8.537554e-11 1.893728e-10 1.199505e+01 2.618790e-12 8.537554e-11 2.618790e-12 1.199505e+01" pbc="T T T"
O 1.161625e+00 -7.215849e-12 -9.682133e-12 6.336132e-01 -1.729582e-13 -1.290762e-13
C 3.686596e-03 -6.943272e-12 -9.412225e-12 -2.596277e-01 5.590622e-14 1.106414e-15
O -1.156886e+00 -6.660921e-12 -9.150652e-12 -3.739682e-01 3.474078e-14 2.874816e-14
3
Lattice="1.800000e+01 0.000000e+00 0.000000e+00 0.000000e+00 1.800000e+01 0.000000e+00 0.000000e+00 0.000000e+00 1.800000e+01" Properties=species:S:1:pos:R:3:force:R:3 energy=3.689602e-03 dipole="-1.949929e-02 7.093982e-15 -1.541484e-14" pol="2.617332e+01 -4.528974e-10 -6.964403e-11 -4.528974e-10 1.211450e+01 -6.936547e-13 -6.964403e-11 -6.936547e-13 1.211450e+01" pbc="T T T"
O 1.173096e+00 -7.252145e-12 -9.849885e-12 -9.892504e-01 2.070741e-13 -4.108630e-14
C -3.518366e-04 -7.061008e-12 -9.659501e-12 7.757208e-01 -1.987648e-13 1.341900e-13
O -1.165325e+00 -6.882014e-12 -9.431329e-12 2.134918e-01 6.920721e-15 -1.547426e-13
3
Lattice="1.800000e+01 0.000000e+00 0.000000e+00 0.000000e+00 1.800000e+01 0.000000e+00 0.000000e+00 0.000000e+00 1.800000e+01" Properties=species:S:1:pos:R:3:force:R:3 energy=5.400786e-03 dipole="-2.329165e-02 3.066931e-16 1.866536e-14" pol="2.620891e+01 8.295090e-10 -3.693231e-11 8.295090e-10 1.212436e+01 -8.036093e-13 -3.693231e-11 -8.036093e-13 1.212436e+01" pbc="T T T"
O 1.174106e+00 -7.275739e-12 -9.981472e-12 -1.144091e+00 7.254979e-14 2.669298e-13
C -9.547183e-04 -7.157002e-12 -9.790175e-12 9.220821e-01 9.026554e-16 -4.767396e-13
O -1.165883e+00 -7.023321e-12 -9.637112e-12 2.219680e-01 1.277347e-14 1.899498e-13
3
Lattice="1.800000e+01 0.000000e+00 0.000000e+00 0.000000e+00 1.800000e+01 0.000000e+00 0.000000e+00 0.000000e+00 1.800000e+01" Properties=species:S:1:pos:R:3:force:R:3 energy=3.939599e-03 dipole="5.718020e-03 7.312816e-15 -1.891860e-14" pol="2.622981e+01 -1.417266e-10 -1.591410e-10 -1.417266e-10 1.212881e+01 1.312600e-12 -1.591410e-10 1.312600e-12 1.212881e+01" pbc="T T T"
O 1.172894e+00 -7.315049e-12 -1.009702e-11 -6.330514e-01 8.529617e-14 -1.051644e-13
C 3.633609e-03 -7.234364e-12 -9.977827e-12 -2.255859e-01 -1.359945e-13 2.966686e-13
O -1.168115e+00 -7.166704e-12 -9.819277e-12 8.586471e-01 -1.929913e-14 -1.867650e-13
3
Lattice="1.800000e+01 0.000000e+00 0.000000e+00 0.000000e+00 1.800000e+01 0.000000e+00 0.000000e+00 0.000000e+00 1.800000e+01" Properties=species:S:1:pos:R:3:force:R:3 energy=4.580243e-03 dipole="-3.446991e-02 -1.624244e-15 3.849982e-15" pol="2.582982e+01 6.417680e-10 4.841227e-10 6.417680e-10 1.202366e+01 3.920758e-12 4.841227e-10 3.920758e-12 1.202366e+01" pbc="T T T"
O 1.166169e+00 -7.369337e-12 -1.027200e-11 -4.445507e-01 1.086313e-14 -6.404232e-14
C -2.666057e-03 -7.353771e-12 -1.017091e-11 1.440193e+00 -1.972294e-14 -1.097979e-13
O -1.156660e+00 -7.338533e-12 -1.007150e-11 -9.957323e-01 3.984389e-14 1.541829e-13
3
Lattice="1.800000e+01 0.000000e+00 0.000000e+00 0.000000e+00 1.800000e+01 0.000000e+00 0.000000e+00 0.000000e+00 1.800000e+01" Properties=species:S:1:pos:R:3:force:R:3 energy=1.105179e-03 dipole="-1.817082e-02 4.258238e-15 -1.629136e-14" pol="2.606017e+01 2.863119e-13 5.627305e-10 2.863119e-13 1.208413e+01 4.386761e-13 5.627305e-10 4.386761e-13 1.208413e+01" pbc="T T T"
O 1.170477e+00 -7.493840e-12 -1.066962e-11 -6.935154e-01 -4.531602e-14 -5.851243e-14
C -1.333279e-04 -7.593031e-12 -1.063169e-11 7.344657e-01 -3.896008e-14 2.057749e-13
O -1.162871e+00 -7.703926e-12 -1.056841e-11 -4.099328e-02 -8.631351e-14 -1.228914e-13
3
Lattice="1.800000e+01 0.000000e+00 0.000000e+00 0.000000e+00 1.800000e+01 0.000000e+00 0.000000e+00 0.000000e+00 1.800000e+01" Properties=species:S:1:pos:R:3:force:R:3 energy=4.990118e-03 dipole="-3.139101e-02 -1.987606e-14 2.071448e-14" pol="2.612012e+01 8.297340e-10 1.372042e-10 8.297340e-10 1.210154e+01 -1.541477e-12 1.372042e-10 -1.541477e-12 1.210154e+01" pbc="T T T"
O 1.172558e+00 -7.562452e-12 -1.108913e-11 -1.086597e+00 -2.653704e-13 2.428398e-13
C -2.223262e-03 -7.820228e-12 -1.103435e-11 1.258856e+00 4.299789e-13 -3.686025e-13
O -1.163382e+00 -8.055627e-12 -1.102619e-11 -1.723237e-01 1.509656e-14 1.991716e-13
3
Lattice="1.800000e+01 0.000000e+00 0.000000e+00 0.000000e+00 1.800000e+01 0.000000e+00 0.000000e+00 0.000000e+00 1.800000e+01" Properties=species:S:1:pos:R:3:force:R:3 energy=5.540813e-03 dipole="-3.922267e-02 -3.290847e-14 1.885675e-14" pol="2.596537e+01 6.004968e-10 6.449861e-10 6.004968e-10 1.206095e+01 4.554725e-12 6.449861e-10 4.554725e-12 1.206095e+01" pbc="T T T"
O 1.169492e+00 -7.867026e-12 -1.290221e-11 -8.646937e-01 -6.472615e-13 2.537799e-13
C -3.432372e-03 -8.559092e-12 -1.269895e-11 1.608282e+00 1.123605e-12 -4.510925e-13
O -1.159408e+00 -9.219976e-12 -1.252463e-11 -7.436829e-01 -5.683161e-13 2.077902e-13
3
Lattice="1.800000e+01 0.000000e+00 0.000000e+00 0.000000e+00 1.800000e+01 0.000000e+00 0.000000e+00 0.000000e+00 1.800000e+01" Properties=species:S:1:pos:R:3:force:R:3 energy=1.153509e-03 dipole="-1.409375e-02 -2.058662e-14 1.596638e-14" pol="2.609669e+01 -6.401140e-10 1.962858e-11 -6.401140e-10 1.209364e+01 -1.434507e-12 1.962858e-11 -1.434507e-12 1.209364e+01" pbc="T T T"
O 1.171069e+00 -8.003617e-12 -1.379794e-11 -7.027268e-01 -6.365030e-13 3.745991e-13
C 5.072299e-04 -8.817817e-12 -1.342618e-11 5.666781e-01 5.806432e-13 -4.088022e-13
O -1.163942e+00 -9.605591e-12 -1.308091e-11 1.360169e-01 -5.169248e-14 4.686802e-14
3
Lattice="1.800000e+01 0.000000e+00 0.000000e+00 0.000000e+00 1.800000e+01 0.000000e+00 0.000000e+00 0.000000e+00 1.800000e+01" Properties=species:S:1:pos:R:3:force:R:3 energy=2.808004e-03 dipole="1.313126e-02 3.471641e-15 -6.323707e-15" pol="2.568678e+01 -1.372033e-11 -1.675004e-10 -1.372033e-11 1.198321e+01 3.357431e-13 -1.675004e-10 3.357431e-13 1.198321e+01" pbc="T T T"
O 1.160195e+00 -8.107737e-12 -1.416160e-11 9.039981e-01 5.144277e-13 -3.937100e-13
C 4.776191e-03 -8.921685e-12 -1.375887e-11 -5.593544e-01 -3.277302e-13 2.383796e-13
O -1.156275e+00 -9.732240e-12 -1.334546e-11 -3.446076e-01 -2.248453e-13 9.769171e-14
3
Lattice="1.800000e+01 0.000000e+00 0.000000e+00 0.000000e+00 1.800000e+01 0.000000e+00 0.000000e+00 0.000000e+00 1.800000e+01" Properties=species:S:1:pos:R:3:force:R:3 energy=-9.006308e-04 dipole="7.033491e-03 1.159017e-14 -1.245849e-14" pol="2.586500e+01 -1.468585e-10 -3.551309e-11 -1.468585e-10 1.203117e+01 1.324242e-12 -3.551309e-11 1.324242e-12 1.203117e+01" pbc="T T T"
O 1.164605e+00 -8.182382e-12 -1.439429e-11 3.035019e-01 2.855009e-13 -8.364739e-14
C 3.830682e-03 -8.984327e-12 -1.396388e-11 -2.921463e-01 -3.245863e-13 1.416303e-13
O -1.159975e+00 -9.809011e-12 -1.352150e-11 -1.133571e-02 8.346216e-14 3.137597e-14
3
Lattice="1.800000e+01 0.000000e+00 0.000000e+00 0.000000e+00 1.800000e+01 0.000000e+00 0.000000e+00 0.000000e+00 1.800000e+01" Properties=species:S:1:pos:R:3:force:R:3 energy=4.951781e-03 dipole="1.707636e-02 1.706895e-14 1.209371e-15" pol="2.563636e+01 4.405987e-10 3.100935e-10 4.405987e-10 1.196972e+01 -5.373039e-13 3.100935e-10 -5.373039e-13 1.196972e+01" pbc="T T T"
O 1.158809e+00 -8.323177e-12 -1.477320e-11 1.127586e+00 7.238350e-13 -4.524647e-13
C 5.388073e-03 -9.103496e-12 -1.430070e-11 -7.326514e-01 -5.769641e-13 2.110181e-13
O -1.155348e+00 -9.896639e-12 -1.383693e-11 -3.948893e-01 -1.880475e-13 1.683385e-13
3
Lattice="1.800000e+01 0.000000e+00 0.000000e+00 0.000000e+00 1.800000e+01 0.000000e+00 0.000000e+00 0.000000e+00 1.800000e+01" Properties=species:S:1:pos:R:3:force:R:3 energy=1.813017e-03 dipole="-9.177886e-03 -8.671183e-15 1.722209e-14" pol="2.570847e+01 1.905532e-10 2.458328e-10 1.905532e-10 1.198895e+01 1.376808e-12 2.458328e-10 1.376808e-12 1.198895e+01" pbc="T T T"
O 1.162000e+00 -8.664307e-12 -1.559059e-11 3.700028e-01 1.656711e-13 -1.185514e-13
C 1.296842e-03 -9.348136e-12 -1.504961e-11 3.897305e-01 3.085993e-13 -4.344624e-13
O -1.155468e+00 -1.002385e-11 -1.453540e-11 -7.597589e-01 -4.476341e-13 3.902301e-13
3
Lattice="1.800000e+01 0.000000e+00 0.000000e+00 0.000000e+00 1.800000e+01 0.000000e+00 0.000000e+00 0.000000e+00 1.800000e+01" Properties=species:S:1:pos:R:3:force:R:3 energy=1.887328e-03 dipole="-1.082775e-02 9.055752e-15 -2.737758e-15" pol="2.614659e+01 2.133642e-10 -2.611333e-10 2.133642e-10 1.210681e+01 -1.886780e-12 -2.611333e-10 -1.886780e-12 1.210681e+01" pbc="T T T"
O 1.172002e+00 -9.097538e-12 -1.657502e-11 -7.592965e-01 -3.156917e-13 3.200041e-13
C 1.019079e-03 -9.591295e-12 -1.597264e-11 4.322718e-01 1.320949e-14 -7.401026e-14
O -1.165262e+00 -1.011023e-11 -1.535544e-11 3.270022e-01 2.460359e-13 -2.292508e-13
3
Lattice="1.800000e+01 0.000000e+00 0.000000e+00 0.000000e+00 1.800000e+01 0.000000e+00 0.000000e+00 0.000000e+00 1.800000e+01" Properties=species:S:1:pos:R:3:force:R:3 energy=2.505343e-04 dipole="-2.490400e-03 4.400991e-15 -6.666486e-15" pol="2.576216e+01 -1.095956e-12 -1.110460e-10 -1.095956e-12 1.200335e+01 -7.558631e-13 -1.110460e-10 -7.558631e-13 1.200335e+01" pbc="T T T"
O 1.162835e+00 -9.701579e-12 -1.798321e-11 3.697040e-01 1.243994e-13 -2.665233e-13
C 2.340027e-03 -9.891976e-12 -1.732591e-11 1.049331e-01 -5.405240e-14 7.727120e-14
O -1.157085e+00 -1.009081e-11 -1.664751e-11 -4.746442e-01 -3.321190e-14 1.605958e-13
3
Lattice="1.800000e+01 0.000000e+00 0.000000e+00 0.000000e+00 1.800000e+01 0.000000e+00 0.000000e+00 0.000000e+00 1.800000e+01" Properties=species:S:1:pos:R:3:force:R:3 energy=3.931208e-03 dipole="-4.392629e-03 -1.037111e-14 6.289548e-15" pol="2.623123e+01 1.852422e-10 2.101757e-10 1.852422e-10 1.212917e+01 -1.267166e-12 2.101757e-10 -1.267166e-12 1.212917e+01" pbc="T T T"
O 1.173527e+00 -9.929512e-12 -1.855069e-11 -8.362043e-01 -9.022104e-14 4.841156e-13
C 2.033779e-03 -1.000315e-11 -1.789447e-11 1.732550e-01 2.394065e-13 -1.679675e-13
O -1.167548e+00 -1.005092e-11 -1.724780e-11 6.629418e-01 -1.750140e-13 -3.099176e-13
3
Lattice="1.800000e+01 0.000000e+00 0.000000e+00 0.000000e+00 1.800000e+01 0.000000e+00 0.000000e+00 0.000000e+00 1.800000e+01" Properties=species:S:1:pos:R:3:force:R:3 energy=-1.329516e-03 dipole="1.173001e-03 6.237392e-16 -8.405121e-15" pol="2.591917e+01 2.015296e-11 7.256793e-11 2.015296e-11 1.204568e+01 4.960357e-13 7.256793e-11 4.960357e-13 1.204568e+01" pbc="T T T"
O 1.166178e+00 -1.002949e-11 -1.879154e-11 4.245330e-02 2.712975e-14 -9.703410e-14
C 2.912736e-03 -1.003156e-11 -1.817814e-11 -4.831408e-02 -1.152368e-13 1.446015e-13
O -1.160859e+00 -1.005072e-11 -1.754449e-11 5.864027e-03 6.794670e-14 -6.543604e-14
3
Lattice="1.800000e+01 0.000000e+00 0.000000e+00 0.000000e+00 1.800000e+01 0.000000e+00 0.000000e+00 0.000000e+00 1.800000e+01" Properties=species:S:1:pos:R:3:force:R:3 energy=-8.986624e-04 dipole="8.218070e-03 7.677428e-15 -1.325934e-14" pol="2.597625e+01 4.901323e-10 -5.957798e-10 4.901323e-10 1.206111e+01 1.501227e-12 -5.957798e-10 1.501227e-12 1.206111e+01" pbc="T T T"
O 1.167047e+00 -1.034978e-11 -1.957990e-11 4.405010e-02 9.176992e-14 -6.157328e-14
C 4.020362e-03 -1.017803e-11 -1.906929e-11 -3.360466e-01 -1.091027e-13 2.762134e-13
O -1.162559e+00 -1.002398e-11 -1.853889e-11 2.920181e-01 2.093397e-14 -1.987363e-13
3
Lattice="1.800000e+01 0.000000e+00 0.000000e+00 0.000000e+00 1.800000e+01 0.000000e+00 0.000000e+00 0.000000e+00 1.800000e+01" Properties=species:S:1:pos:R:3:force:R:3 energy=4.413925e-04 dipole="1.214689e-02 8.254683e-15 -1.384516e-14" pol="2.606838e+01 6.214038e-10 -1.514189e-10 6.214038e-10 1.208596e+01 -2.376662e-14 -1.514189e-10 -2.376662e-14 1.208596e+01" pbc="T T T"
O 1.168883e+00 -1.073302e-11 -2.037334e-11 -1.058688e-01 1.609126e-13 -4.472655e-14
C 4.642811e-03 -1.034401e-11 -1.999064e-11 -4.903296e-01 1.649209e-14 2.784599e-13
O -1.164862e+00 -9.972284e-12 -1.958844e-11 5.962272e-01 -1.489339e-13 -2.704723e-13
3
Lattice="1.800000e+01 0.000000e+00 0.000000e+00 0.000000e+00 1.800000e+01 0.000000e+00 0.000000e+00 0.000000e+00 1.800000e+01" Properties=species:S:1:pos:R:3:force:R:3 energy=5.015778e-03 dipole="3.658955e-02 -3.004300e-15 -1.415454e-14" pol="2.602104e+01 -2.491083e-10 1.641065e-10 -2.491083e-10 1.207560e+01 -4.272456e-13 1.641065e-10 -4.272456e-13 1.207560e+01" pbc="T T T"
O 1.166285e+00 -1.088203e-11 -2.069028e-11 5.397821e-01 -8.653658e-14 -1.602622e-13
C 8.485186e-03 -1.041989e-11 -2.037179e-11 -1.488375e+00 4.092767e-13 4.507024e-13
O -1.165150e+00 -9.972344e-12 -2.004103e-11 9.486778e-01 -2.241776e-13 -3.444257e-13
3
Lattice="1.800000e+01 0.000000e+00 0.000000e+00 0.000000e+00 1.800000e+01 0.000000e+00 0.000000e+00 0.000000e+00 1.800000e+01" Properties=species:S:1:pos:R:3:force:R:3 energy=-5.317347e-04 dipole="-2.872794e-04 -6.515603e-15 2.294632e-15" pol="2.580809e+01 5.213843e-10 4.680852e-10 5.213843e-10 1.201575e+01 5.587696e-13 4.680852e-10 5.587696e-13 1.201575e+01" pbc="T T T"
O 1.163748e+00 -1.139510e-11 -2.178703e-11 2.967494e-01 -2.266140e-13 3.745299e-14
C 2.683875e-03 -1.071331e-11 -2.170840e-11 1.202353e-02 8.059960e-14 -3.652533e-14
O -1.158257e+00 -1.002102e-11 -2.163760e-11 -3.087737e-01 2.135929e-13 1.137913e-13
3
Lattice="1.800000e+01 0.000000e+00 0.000000e+00 0.000000e+00 1.800000e+01 0.000000e+00 0.000000e+00 0.000000e+00 1.800000e+01" Properties=species:S:1:pos:R:3:force:R:3 energy=3.868446e-03 dipole="-1.071154e-02 2.458600e-15 -2.790695e-15" pol="2.564383e+01 5.863815e-10 5.634268e-10 5.863815e-10 1.197147e+01 -1.123144e-12 5.634268e-10 -1.123144e-12 1.197147e+01" pbc="T T T"
O 1.160615e+00 -1.176511e-11 -2.266788e-11 5.074890e-01 -3.614265e-13 -2.313425e-14
C 1.060626e-03 -1.096118e-11 -2.273632e-11 4.590258e-01 -3.342273e-13 -3.036488e-14
O -1.153905e+00 -1.015938e-11 -2.281009e-11 -9.665435e-01 7.591234e-13 2.459387e-14
3
Lattice="1.800000e+01 0.000000e+00 0.000000e+00 0.000000e+00 1.800000e+01 0.000000e+00 0.000000e+00 0.000000e+00 1.800000e+01" Properties=species:S:1:pos:R:3:force:R:3 energy=3.112350e-03 dipole="-2.369496e-02 6.168952e-15 -6.175199e-15" pol="2.574679e+01 -1.517049e-10 5.177829e-10 -1.517049e-10 1.200011e+01 -1.208575e-12 5.177829e-10 -1.208575e-12 1.200011e+01" pbc="T T T"
O 1.163693e+00 -1.198083e-11 -2.328039e-11 -2.475882e-02 4.414235e-14 2.144979e-14
C -9.713526e-04 -1.117024e-11 -2.351335e-11 1.001150e+00 -5.865424e-13 2.130885e-13
O -1.155456e+00 -1.034615e-11 -2.374593e-11 -9.764557e-01 6.342216e-13 -1.221896e-13
3
Lattice="1.800000e+01 0.000000e+00 0.000000e+00 0.000000e+00 1.800000e+01 0.000000e+00 0.000000e+00 0.000000e+00 1.800000e+01" Properties=species:S:1:pos:R:3:force:R:3 energy=4.420779e-03 dipole="-3.529613e-02 9.302856e-15 -9.204832e-15" pol="2.587328e+01 5.518342e-10 4.850019e-10 5.518342e-10 1.203552e+01 9.889953e-13 4.850019e-10 9.889953e-13 1.203552e+01" pbc="T T T"
O 1.167199e+00 -1.216870e-11 -2.403310e-11 -5.673991e-01 2.127413e-13 -1.782937e-13
C -2.801956e-03 -1.143290e-11 -2.447776e-11 1.465798e+00 -7.625547e-13 5.426824e-13
O -1.157588e+00 -1.067861e-11 -2.492397e-11 -8.984897e-01 4.269344e-13 -3.321332e-13
3
Lattice="1.800000e+01 0.000000e+00 0.000000e+00 0.000000e+00 1.800000e+01 0.000000e+00 0.000000e+00 0.000000e+00 1.800000e+01" Properties=species:S:1:pos:R:3:force:R:3 energy=1.385811e-03 dipole="9.056483e-03 -2.235931e-14 9.819232e-15" pol="2.613171e+01 -1.311922e-10 3.074429e-10 -1.311922e-10 1.210276e+01 -7.890996e-13 3.074429e-10 -7.890996e-13 1.210276e+01" pbc="T T T"
O 1.170493e+00 -1.225915e-11 -2.449031e-11 -3.266669e-01 1.045476e-13 -1.346095e-13
C 4.157946e-03 -1.160456e-11 -2.503587e-11 -3.623044e-01 4.510631e-13 -2.269152e-13
O -1.166109e+00 -1.091303e-11 -2.559633e-11 6.889907e-01 -5.251544e-13 3.238336e-13
3
Lattice="1.800000e+01 0.000000e+00 0.000000e+00 0.000000e+00 1.800000e+01 0.000000e+00 0.000000e+00 0.000000e+00 1.800000e+01" Properties=species:S:1:pos:R:3:force:R:3 energy=-5.351276e-04 dipole="9.752802e-04 -1.134436e-14 6.872835e-15" pol="2.604501e+01 4.360290e-10 -7.425836e-11 4.360290e-10 1.207945e+01 -8.881287e-13 -7.425836e-11 -8.881287e-13 1.207945e+01" pbc="T T T"
O 1.169029e+00 -1.230825e-11 -2.479927e-11 -2.771846e-01 4.810830e-14 -1.000986e-13
C 2.882260e-03 -1.172049e-11 -2.541908e-11 -3.944928e-02 2.487601e-13 -1.077529e-13
O -1.163686e+00 -1.109953e-11 -2.605264e-11 3.166363e-01 -3.150161e-13 2.228366e-13
3
Lattice="1.800000e+01 0.000000e+00 0.000000e+00 0.000000e+00 1.800000e+01 0.000000e+00 0.000000e+00 0.000000e+00 1.800000e+01" Properties=species:S:1:pos:R:3:force:R:3 energy=5.763438e-03 dipole="-2.265324e-02 -1.014552e-14 1.984360e-15" pol="2.622429e+01 -4.395805e-10 7.162785e-10 -4.395805e-10 1.212840e+01 1.136550e-12 7.162785e-10 1.136550e-12 1.212840e+01" pbc="T T T"
O 1.174415e+00 -1.288515e-11 -2.784119e-11 -1.168080e+00 -2.078073e-13 -5.467423e-13
C -8.552054e-04 -1.295354e-11 -2.849224e-11 8.948407e-01 2.957922e-13 3.683584e-13
O -1.166267e+00 -1.298833e-11 -2.916235e-11 2.732010e-01 -9.027147e-14 2.155951e-13
3
Lattice="1.800000e+01 0.000000e+00 0.000000e+00 0.000000e+00 1.800000e+01 0.000000e+00 0.000000e+00 0.000000e+00 1.800000e+01" Properties=species:S:1:pos:R:3:force:R:3 energy=2.760677e-03 dipole="-2.400627e-03 -9.435703e-15 -7.950084e-16" pol="2.566231e+01 -2.926871e-10 1.777274e-10 -2.926871e-10 1.197632e+01 -2.278681e-12 1.777274e-10 -2.278681e-12 1.197632e+01" pbc="T T T"
O 1.160557e+00 -1.300284e-11 -2.844792e-11 6.338691e-01 -1.168928e-14 3.093023e-13
C 2.354965e-03 -1.317160e-11 -2.897590e-11 1.025821e-01 1.538029e-13 4.222667e-14
O -1.154819e+00 -1.331992e-11 -2.950387e-11 -7.364578e-01 -1.657280e-13 -3.324732e-13
3
Lattice="1.800000e+01 0.000000e+00 0.000000e+00 0.000000e+00 1.800000e+01 0.000000e+00 0.000000e+00 0.000000e+00 1.800000e+01" Properties=species:S:1:pos:R:3:force:R:3 energy=6.871408e-03 dipole="-2.628656e-02 -1.664445e-14 6.737097e-15" pol="2.623541e+01 2.029950e-10 -1.442417e-10 2.029950e-10 1.213177e+01 1.292092e-12 -1.442417e-10 1.292092e-12 1.213177e+01" pbc="T T T"
O 1.174866e+00 -1.313349e-11 -2.932444e-11 -1.261267e+00 -5.033126e-13 -2.641931e-13
C -1.431254e-03 -1.349478e-11 -2.965391e-11 1.036899e+00 4.572622e-13 9.227706e-14
O -1.166285e+00 -1.383285e-11 -3.000720e-11 2.243247e-01 3.027382e-14 1.884025e-13
3
Lattice="1.800000e+01 0.000000e+00 0.000000e+00 0.000000e+00 1.800000e+01 0.000000e+00 0.000000e+00 0.000000e+00 1.800000e+01" Properties=species:S:1:pos:R:3:force:R:3 energy=7.931481e-04 dipole="1.473545e-02 4.099258e-15 1.335780e-14" pol="2.607159e+01 1.998136e-10 1.254035e-10 1.998136e-10 1.208696e+01 1.538404e-12 1.254035e-10 1.538404e-12 1.208696e+01" pbc="T T T"
O 1.168797e+00 -1.321807e-11 -2.979064e-11 -5.991397e-02 -6.122557e-14 8.897864e-14
C 5.050795e-03 -1.364238e-11 -3.000233e-11 -5.945904e-01 -1.833141e-13 -2.881642e-13
O -1.165082e+00 -1.406791e-11 -3.023960e-11 6.545389e-01 2.182012e-13 2.622287e-13
3
Lattice="1.800000e+01 0.000000e+00 0.000000e+00 0.000000e+00 1.800000e+01 0.000000e+00 0.000000e+00 0.000000e+00 1.800000e+01" Properties=species:S:1:pos:R:3:force:R:3 energy=9.406001e-03 dipole="-3.608949e-02 -2.509516e-14 -3.191465e-15" pol="2.564461e+01 5.059346e-10 2.643880e-10 5.059346e-10 1.197353e+01 8.584859e-13 2.643880e-10 8.584859e-13 1.197353e+01" pbc="T T T"
O 1.162042e+00 -1.335673e-11 -3.044999e-11 -1.024899e-02 -9.744041e-14 3.030224e-14
C -2.892050e-03 -1.387925e-11 -3.051504e-11 1.547751e+00 8.548085e-13 8.272170e-14
O -1.152365e+00 -1.437966e-11 -3.057697e-11 -1.537590e+00 -7.484778e-13 -9.444167e-14
3
Lattice="1.800000e+01 0.000000e+00 0.000000e+00 0.000000e+00 1.800000e+01 0.000000e+00 0.000000e+00 0.000000e+00 1.800000e+01" Properties=species:S:1:pos:R:3:force:R:3 energy=5.821497e-03 dipole="-3.526288e-02 -8.741306e-15 -6.974348e-15" pol="2.576744e+01 1.380383e-11 -3.795386e-10 1.380383e-11 1.200683e+01 -1.104615e-12 -3.795386e-10 -1.104615e-12 1.200683e+01" pbc="T T T"
O 1.164795e+00 -1.348970e-11 -3.110762e-11 -3.047029e-01 -3.337664e-15 -1.186083e-13
C -2.780922e-03 -1.408380e-11 -3.102856e-11 1.486361e+00 6.109215e-13 6.230385e-15
O -1.155200e+00 -1.469589e-11 -3.093667e-11 -1.181750e+00 -4.985246e-13 4.593029e-14
3
Lattice="1.800000e+01 0.000000e+00 0.000000e+00 0.000000e+00 1.800000e+01 0.000000e+00 0.000000e+00 0.000000e+00 1.800000e+01" Properties=species:S:1:pos:R:3:force:R:3 energy=3.862403e-03 dipole="-1.006655e-02 4.538816e-15 1.308758e-15" pol="2.564215e+01 2.161537e-10 -6.196068e-10 2.161537e-10 1.197099e+01 -9.397321e-13 -6.196068e-10 -9.397321e-13 1.197099e+01" pbc="T T T"
O 1.160539e+00 -1.358926e-11 -3.162827e-11 5.254324e-01 3.009018e-13 -8.485474e-14
C 1.160925e-03 -1.423910e-11 -3.141091e-11 4.314832e-01 1.274935e-13 -1.068162e-13
O -1.153905e+00 -1.490912e-11 -3.119063e-11 -9.569425e-01 -4.726474e-13 2.002257e-13
3
Lattice="1.800000e+01 0.000000e+00 0.000000e+00 0.000000e+00 1.800000e+01 0.000000e+00 0.000000e+00 0.000000e+00 1.800000e+01" Properties=species:S:1:pos:R:3:force:R:3 energy=5.418263e-04 dipole="2.339404e-03 1.666931e-15 -1.186768e-14" pol="2.610775e+01 -2.839688e-10 8.149863e-10 -2.839688e-10 1.209622e+01 3.337190e-12 8.149863e-10 3.337190e-12 1.209622e+01" pbc="T T T"
O 1.170359e+00 -1.377702e-11 -3.248065e-11 -4.042787e-01 -2.771523e-13 1.763771e-13
C 3.097864e-03 -1.448651e-11 -3.205059e-11 -9.387963e-02 -9.450038e-16 1.848374e-13
O -1.165178e+00 -1.519544e-11 -3.159751e-11 4.981636e-01 2.494372e-13 -3.276466e-13
3
Lattice="1.800000e+01 0.000000e+00 0.000000e+00 0.000000e+00 1.800000e+01 0.000000e+00 0.000000e+00 0.000000e+00 1.800000e+01" Properties=species:S:1:pos:R:3:force:R:3 energy=-1.093193e-03 dipole="-7.384183e-03 -1.102915e-14 1.026533e-14" pol="2.591942e+01 3.610268e-10 -1.804135e-10 3.610268e-10 1.204582e+01 -2.035436e-12 -1.804135e-10 -2.035436e-12 1.204582e+01" pbc="T T T"
O 1.166684e+00 -1.386780e-11 -3.282885e-11 -1.332369e-01 -1.206328e-13 1.610509e-13
C 1.570250e-03 -1.458726e-11 -3.230177e-11 3.043719e-01 2.948086e-13 -2.418150e-13
O -1.160356e+00 -1.529277e-11 -3.178951e-11 -1.711553e-01 -1.732080e-13 1.101534e-13
3
Lattice="1.800000e+01 0.000000e+00 0.000000e+00 0.000000e+00 1.800000e+01 0.000000e+00 0.000000e+00 0.000000e+00 1.800000e+01" Properties=species:S:1:pos:R:3:force:R:3 energy=-1.194200e-03 dipole="-4.094531e-03 -3.019384e-15 -5.418298e-15" pol="2.596132e+01 1.699815e-10 1.296089e-10 1.699815e-10 1.205702e+01 2.784617e-12 1.296089e-10 2.784617e-12 1.205702e+01" pbc="T T T"
O 1.167440e+00 -1.509245e-11 -3.612162e-11 -1.716295e-01 -1.307875e-13 1.380437e-13
C 2.085706e-03 -1.542257e-11 -3.528275e-11 1.677664e-01 1.081774e-13 1.865616e-14
O -1.161499e+00 -1.574762e-11 -3.442802e-11 3.852120e-03 -1.951941e-14 -8.602900e-14
3
Lattice="1.800000e+01 0.000000e+00 0.000000e+00 0.000000e+00 1.800000e+01 0.000000e+00 0.000000e+00 0.000000e+00 1.800000e+01" Properties=species:S:1:pos:R:3:force:R:3 energy=9.914157e-04 dipole="7.219556e-03 -7.642203e-15 -2.472896e-14" pol="2.611969e+01 -6.602622e-11 2.594467e-10 -6.602622e-11 1.209949e+01 -3.436261e-13 2.594467e-10 -3.436261e-13 1.209949e+01" pbc="T T T"
O 1.170335e+00 -1.541324e-11 -3.667009e-11 -3.346066e-01 -1.426603e-13 -1.485383e-15
C 3.868156e-03 -1.557669e-11 -3.601450e-11 -2.892973e-01 1.185178e-13 4.688444e-13
O -1.165732e+00 -1.572212e-11 -3.531321e-11 6.239197e-01 -5.610292e-14 -5.401598e-13
3
Lattice="1.800000e+01 0.000000e+00 0.000000e+00 0.000000e+00 1.800000e+01 0.000000e+00 0.000000e+00 0.000000e+00 1.800000e+01" Properties=species:S:1:pos:R:3:force:R:3 energy=4.460451e-03 dipole="-3.561060e-02 -7.142332e-15 4.813113e-15" pol="2.588239e+01 6.977878e-10 4.894856e-10 6.977878e-10 1.203802e+01 -4.269415e-12 4.894856e-10 -4.269415e-12 1.203802e+01" pbc="T T T"
O 1.167422e+00 -1.572925e-11 -3.732271e-11 -5.956945e-01 -2.680019e-14 3.237379e-13
C -2.852492e-03 -1.574324e-11 -3.691679e-11 1.476991e+00 1.013597e-13 -4.127884e-13
O -1.157773e+00 -1.574486e-11 -3.649824e-11 -8.813876e-01 -8.620892e-14 2.825810e-13
3
Lattice="1.800000e+01 0.000000e+00 0.000000e+00 0.000000e+00 1.800000e+01 0.000000e+00 0.000000e+00 0.000000e+00 1.800000e+01" Properties=species:S:1:pos:R:3:force:R:3 energy=5.426371e-03 dipole="-3.158600e-02 -2.975583e-15 -8.159351e-15" pol="2.573323e+01 7.764324e-11 -5.213995e-10 7.764324e-11 1.199715e+01 -5.801896e-13 -5.213995e-10 -5.801896e-13 1.199715e+01" pbc="T T T"
O 1.163818e+00 -1.596778e-11 -3.779820e-11 -1.468390e-01 -5.724257e-14 -1.708869e-13
C -2.202268e-03 -1.586821e-11 -3.764092e-11 1.337547e+00 -9.521890e-14 -8.825633e-15
O -1.154658e+00 -1.576077e-11 -3.745640e-11 -1.190791e+00 1.465509e-13 8.393087e-15
3
Lattice="1.800000e+01 0.000000e+00 0.000000e+00 0.000000e+00 1.800000e+01 0.000000e+00 0.000000e+00 0.000000e+00 1.800000e+01" Properties=species:S:1:pos:R:3:force:R:3 energy=-4.528485e-04 dipole="1.213889e-02 -5.337786e-16 2.111889e-14" pol="2.599104e+01 1.113469e-09 -1.310819e-10 1.113469e-09 1.206523e+01 7.014773e-13 -1.310819e-10 7.014773e-13 1.206523e+01" pbc="T T T"
O 1.167143e+00 -1.647589e-11 -3.865887e-11 8.866103e-02 3.786874e-14 1.557872e-13
C 4.637158e-03 -1.610170e-11 -3.884418e-11 -4.953799e-01 3.755965e-14 -3.363385e-13
O -1.163118e+00 -1.574266e-11 -3.906446e-11 4.067503e-01 -8.464321e-14 1.474909e-13
3
Lattice="1.800000e+01 0.000000e+00 0.000000e+00 0.000000e+00 1.800000e+01 0.000000e+00 0.000000e+00 0.000000e+00 1.800000e+01" Properties=species:S:1:pos:R:3:force:R:3 energy=-1.171472e-03 dipole="5.599660e-03 2.145280e-15 2.379308e-14" pol="2.594847e+01 -1.442931e-10 -2.337375e-10 -1.442931e-10 1.205359e+01 9.927898e-13 -2.337375e-10 9.927898e-13 1.205359e+01" pbc="T T T"
O 1.166577e+00 -1.678340e-11 -3.917800e-11 5.991808e-02 5.580576e-14 2.385766e-13
C 3.608029e-03 -1.629384e-11 -3.960953e-11 -2.298631e-01 5.926789e-14 -4.670851e-13
O -1.161780e+00 -1.580815e-11 -4.008734e-11 1.699601e-01 -1.411399e-14 2.417067e-13
3
Lattice="1.800000e+01 0.000000e+00 0.000000e+00 0.000000e+00 1.800000e+01 0.000000e+00 0.000000e+00 0.000000e+00 1.800000e+01" Properties=species:S:1:pos:R:3:force:R:3 energy=3.973225e-03 dipole="3.300128e-02 -1.951651e-14 4.468598e-14" pol="2.602587e+01 8.556672e-10 1.260324e-10 8.556672e-10 1.207642e+01 -3.161008e-12 1.260324e-10 -3.161008e-12 1.207642e+01" pbc="T T T"
O 1.166624e+00 -1.736020e-11 -4.005119e-11 4.480591e-01 -2.699926e-13 4.865621e-13
C 7.921606e-03 -1.667262e-11 -4.088248e-11 -1.341226e+00 7.675844e-13 -1.324113e-12
O -1.165065e+00 -1.597727e-11 -4.177271e-11 8.932444e-01 -4.997834e-13 8.103304e-13
3
Lattice="1.800000e+01 0.000000e+00 0.000000e+00 0.000000e+00 1.800000e+01 0.000000e+00 0.000000e+00 0.000000e+00 1.800000e+01" Properties=species:S:1:pos:R:3:force:R:3 energy=2.572765e-03 dipole="-2.953134e-02 1.016577e-14 -3.402385e-14" pol="2.590787e+01 1.291729e-10 -6.391299e-10 1.291729e-10 1.204420e+01 -1.629920e-12 -6.391299e-10 -1.629920e-12 1.204420e+01" pbc="T T T"
O 1.167669e+00 -1.749934e-11 -4.027014e-11 -5.417696e-01 2.877072e-13 -5.818340e-13
C -1.902950e-03 -1.677117e-11 -4.122496e-11 1.220082e+00 -6.613419e-13 1.244421e-12
O -1.158733e+00 -1.603215e-11 -4.214107e-11 -6.783896e-01 3.128324e-13 -6.431073e-13
3
Lattice="1.800000e+01 0.000000e+00 0.000000e+00 0.000000e+00 1.800000e+01 0.000000e+00 0.000000e+00 0.000000e+00 1.800000e+01" Properties=species:S:1:pos:R:3:force:R:3 energy=-1.148896e-03 dipole="-2.118825e-03 7.036776e-15 1.865073e-14" pol="2.598083e+01 9.425841e-11 3.907401e-10 9.425841e-11 1.206224e+01 2.244220e-12 3.907401e-10 2.244220e-12 1.206224e+01" pbc="T T T"
O 1.167765e+00 -1.776228e-11 -4.081804e-11 -1.802917e-01 1.970738e-13 -2.012709e-14
C 2.395829e-03 -1.697518e-11 -4.181718e-11 8.656089e-02 -1.549971e-13 -1.888813e-13
O -1.162057e+00 -1.619965e-11 -4.285616e-11 9.372520e-02 4.768273e-15 2.366074e-13
3
Lattice="1.800000e+01 0.000000e+00 0.000000e+00 0.000000e+00 1.800000e+01 0.000000e+00 0.000000e+00 0.000000e+00 1.800000e+01" Properties=species:S:1:pos:R:3:force:R:3 energy=6.025644e-03 dipole="2.287057e-02 -7.844768e-15 1.850306e-14" pol="2.563670e+01 -3.113393e-10 3.428175e-10 -3.113393e-10 1.197017e+01 -3.335165e-14 3.428175e-10 -3.335165e-14 1.197017e+01" pbc="T T T"
O 1.158464e+00 -1.805391e-11 -4.179498e-11 1.256664e+00 -7.507763e-13 8.911003e-13
C 6.290187e-03 -1.731242e-11 -4.273682e-11 -9.813709e-01 5.319226e-13 -7.393101e-13
O -1.155680e+00 -1.657445e-11 -4.368395e-11 -2.752337e-01 1.915501e-13 -2.650577e-13
3
Lattice="1.800000e+01 0.000000e+00 0.000000e+00 0.000000e+00 1.800000e+01 0.000000e+00 0.000000e+00 0.000000e+00 1.800000e+01" Properties=species:S:1:pos:R:3:force:R:3 energy=6.334911e-03 dipole="-2.530023e-02 1.199966e-14 -4.088338e-14" pol="2.622556e+01 -7.522091e-10 9.255457e-11 -7.522091e-10 1.212903e+01 1.636654e-13 9.255457e-11 1.636654e-13 1.212903e+01" pbc="T T T"
O 1.174591e+00 -1.819457e-11 -4.244499e-11 -1.220199e+00 6.750600e-13 -1.105400e-12
C -1.273828e-03 -1.751207e-11 -4.329637e-11 9.993352e-01 -5.638078e-13 1.105911e-12
O -1.166128e+00 -1.683139e-11 -4.409327e-11 2.208212e-01 -1.616723e-13 -3.461135e-14
3
Lattice="1.800000e+01 0.000000e+00 0.000000e+00 0.000000e+00 1.800000e+01 0.000000e+00 0.000000e+00 0.000000e+00 1.800000e+01" Properties=species:S:1:pos:R:3:force:R:3 energy=6.534027e-04 dipole="-1.525782e-02 1.330018e-14 -9.688424e-15" pol="2.579925e+01 -5.375708e-10 -6.564574e-10 -5.375708e-10 1.201375e+01 -1.249506e-12 -6.564574e-10 -1.249506e-12 1.201375e+01" pbc="T T T"
O 1.164412e+00 -1.881458e-11 -4.568120e-11 1.135184e-02 5.924490e-14 -4.696726e-14
C 3.427597e-04 -1.851618e-11 -4.571685e-11 6.397615e-01 -2.498105e-13 1.427851e-13
O -1.157162e+00 -1.823431e-11 -4.573150e-11 -6.511563e-01 2.319961e-13 -3.774659e-14
3
Lattice="1.800000e+01 0.000000e+00 0.000000e+00 0.000000e+00 1.800000e+01 0.000000e+00 0.000000e+00 0.000000e+00 1.800000e+01" Properties=species:S:1:pos:R:3:force:R:3 energy=3.517548e-03 dipole="-1.792999e-02 -6.388871e-15 1.983471e-14" pol="2.617611e+01 -7.953120e-10 3.236961e-10 -7.953120e-10 1.211512e+01 6.746535e-13 3.236961e-10 6.746535e-13 1.211512e+01" pbc="T T T"
O 1.173070e+00 -1.886563e-11 -4.600688e-11 -9.660793e-01 7.366841e-14 1.448128e-13
C -1.040371e-04 -1.864436e-11 -4.594153e-11 7.129728e-01 -1.543793e-15 -3.617596e-13
O -1.165486e+00 -1.840223e-11 -4.592006e-11 2.530719e-01 -6.778578e-14 2.073857e-13
3
Lattice="1.800000e+01 0.000000e+00 0.000000e+00 0.000000e+00 1.800000e+01 0.000000e+00 0.000000e+00 0.000000e+00 1.800000e+01" Properties=species:S:1:pos:R:3:force:R:3 energy=7.551895e-03 dipole="4.472316e-02 -9.837342e-15 -6.053416e-15" pol="2.594743e+01 -5.721311e-10 -1.406315e-10 -5.721311e-10 1.205695e+01 -1.015468e-12 -1.406315e-10 -1.015468e-12 1.205695e+01" pbc="T T T"
O 1.164106e+00 -1.925021e-11 -4.759244e-11 9.155145e-01 -7.610074e-14 -2.532350e-13
C 9.750608e-03 -1.923768e-11 -4.716707e-11 -1.839129e+00 2.156267e-13 4.995234e-13
O -1.163921e+00 -1.920131e-11 -4.675448e-11 9.237201e-01 -9.123433e-14 -2.092181e-13
3
Lattice="1.800000e+01 0.000000e+00 0.000000e+00 0.000000e+00 1.800000e+01 0.000000e+00 0.000000e+00 0.000000e+00 1.800000e+01" Properties=species:S:1:pos:R:3:force:R:3 energy=2.868372e-03 dipole="2.753514e-03 4.185915e-15 -1.488367e-14" pol="2.565915e+01 -2.282954e-10 5.836958e-10 -2.282954e-10 1.197547e+01 1.002696e-12 5.836958e-10 1.002696e-12 1.197547e+01" pbc="T T T"
O 1.160184e+00 -1.982017e-11 -4.963523e-11 7.524723e-01 1.446479e-13 -5.200137e-13
C 3.157983e-03 -1.999704e-11 -4.883716e-11 -1.177188e-01 -1.200869e-13 2.763516e-13
O -1.155048e+00 -2.018873e-11 -4.801015e-11 -6.347460e-01 -1.134820e-14 3.352774e-13
3
Lattice="1.800000e+01 0.000000e+00 0.000000e+00 0.000000e+00 1.800000e+01 0.000000e+00 0.000000e+00 0.000000e+00 1.800000e+01" Properties=species:S:1:pos:R:3:force:R:3 energy=2.011785e-04 dipole="-1.593462e-02 -1.910356e-15 4.443440e-15" pol="2.601328e+01 -4.188631e-10 -5.742411e-12 -4.188631e-10 1.207140e+01 1.589541e-12 -5.742411e-12 1.589541e-12 1.207140e+01" pbc="T T T"
O 1.169294e+00 -1.989027e-11 -4.999110e-11 -5.360789e-01 -5.553670e-14 3.689478e-13
C 2.223537e-04 -2.012914e-11 -4.912998e-11 6.483071e-01 5.619219e-14 -3.553062e-13
O -1.161954e+00 -2.038082e-11 -4.825777e-11 -1.122682e-01 -2.404455e-14 2.057437e-15
3
Lattice="1.800000e+01 0.000000e+00 0.000000e+00 0.000000e+00 1.800000e+01 0.000000e+00 0.000000e+00 0.000000e+00 1.800000e+01" Properties=species:S:1:pos:R:3:force:R:3 energy=9.731477e-03 dipole="4.467765e-02 7.639670e-16 1.614851e-15" pol="2.613989e+01 -3.703331e-10 4.482785e-10 -3.703331e-10 1.210895e+01 -1.221426e-12 4.482785e-10 -1.221426e-12 1.210895e+01" pbc="T T T"
O 1.168416e+00 -2.185717e-15 -6.470550e-16 4.139015e-01 9.083857e-14 -4.641737e-14
C 9.780349e-03 -5.983945e-17 -5.301723e-16 -1.788235e+00 -3.519176e-14 -1.475126e-14
O -1.168252e+00 -8.009696e-16 -1.132327e-15 1.374418e+00 -2.867279e-14 -1.497137e-14
3
Lattice="1.800000e+01 0.000000e+00 0.000000e+00 0.000000e+00 1.800000e+01 0.000000e+00 0.000000e+00 0.000000e+00 1.800000e+01" Properties=species:S:1:pos:R:3:force:R:3 energy=7.779584e-03 dipole="2.970323e-02 -3.142949e-16 4.306437e-16" pol="2.623872e+01 -3.327391e-10 -5.855569e-10 -3.327391e-10 1.213309e+01 -2.561350e-12 -5.855569e-10 -2.561350e-12 1.213309e+01" pbc="T T T"
O 1.171598e+00 -1.258534e-14 -1.477896e-15 -1.602308e-01 -1.487502e-14 1.236654e-14
C 7.430068e-03 -2.610065e-15 -6.621088e-16 -1.171325e+00 1.717258e-15 2.406448e-14
O -1.169669e+00 1.034624e-14 3.182981e-15 1.331604e+00 -2.410207e-14 5.046474e-14
3
Lattice="1.800000e+01 0.000000e+00 0.000000e+00 0.000000e+00 1.800000e+01 0.000000e+00 0.000000e+00 0.000000e+00 1.800000e+01" Properties=species:S:1:pos:R:3:force:R:3 energy=2.471957e-03 dipole="1.699543e-02 1.151915e-14 -1.077618e-16" pol="2.614056e+01 -2.939102e-10 -3.787477e-10 -2.939102e-10 1.210556e+01 6.878169e-13 -3.787477e-10 6.878169e-13 1.210556e+01" pbc="T T T"
O 1.170205e+00 -9.538171e-14 -1.147441e-14 -1.846128e-01 -5.064296e-15 1.633638e-14
C 5.411631e-03 -1.551130e-14 -1.498066e-14 -6.791889e-01 -4.416639e-14 8.649430e-15
O -1.166761e+00 6.132273e-14 -1.883780e-14 8.638370e-01 -4.435976e-14 1.111344e-14
3
Lattice="1.800000e+01 0.000000e+00 0.000000e+00 0.000000e+00 1.800000e+01 0.000000e+00 0.000000e+00 0.000000e+00 1.800000e+01" Properties=species:S:1:pos:R:3:force:R:3 energy=-2.974007e-04 dipole="8.638044e-03 -6.645481e-16 4.611108e-15" pol="2.581590e+01 6.613120e-10 -3.373558e-11 6.613120e-10 1.201797e+01 1.809639e-13 -3.373558e-11 1.809639e-13 1.201797e+01" pbc="T T T"
O 1.163397e+00 -2.076199e-13 -2.126558e-14 4.649597e-01 -1.020146e-13 1.182162e-14
C 4.080401e-03 -3.849867e-14 -2.933464e-14 -3.612951e-01 2.534193e-14 -5.169231e-14
O -1.158954e+00 1.301326e-13 -4.217877e-14 -1.036400e-01 2.971402e-14 6.262818e-14
3
Lattice="1.800000e+01 0.000000e+00 0.000000e+00 0.000000e+00 1.800000e+01 0.000000e+00 0.000000e+00 0.000000e+00 1.800000e+01" Properties=species:S:1:pos:R:3:force:R:3 energy=1.527483e-03 dipole="-1.583658e-02 -2.497221e-15 -3.410466e-15" pol="2.575432e+01 2.455012e-10 2.910194e-11 2.455012e-10 1.200163e+01 -7.036643e-13 2.910194e-11 -7.036643e-13 1.200163e+01" pbc="T T T"
O 1.163422e+00 -3.837786e-13 -1.195498e-14 1.144643e-01 -1.232760e-13 1.279820e-14
C 2.544051e-04 -8.052317e-14 -4.170979e-14 6.682521e-01 -5.532177e-14 5.144851e-14
O -1.156109e+00 2.339659e-13 -6.741005e-14 -7.827607e-01 1.866499e-13 -5.354288e-14
3
Lattice="1.800000e+01 0.000000e+00 0.000000e+00 0.000000e+00 1.800000e+01 0.000000e+00 0.000000e+00 0.000000e+00 1.800000e+01" Properties=species:S:1:pos:R:3:force:R:3 energy=4.076779e-03 dipole="1.775704e-02 -1.198536e-14 -3.061747e-15" pol="2.566643e+01 6.563289e-11 6.007394e-11 6.563289e-11 1.197792e+01 1.504118e-12 6.007394e-11 1.504118e-12 1.197792e+01" pbc="T T T"
O 1.159452e+00 -4.696351e-13 -4.363545e-16 1.061064e+00 -3.469721e-13 -2.021606e-14
C 5.495964e-03 -1.069963e-13 -4.819933e-14 -7.586524e-01 3.016207e-13 -1.540850e-14
O -1.156072e+00 2.680766e-13 -9.122650e-14 -3.023642e-01 4.190992e-14 5.591749e-16
3
Lattice="1.800000e+01 0.000000e+00 0.000000e+00 0.000000e+00 1.800000e+01 0.000000e+00 0.000000e+00 0.000000e+00 1.800000e+01" Properties=species:S:1:pos:R:3:force:R:3 energy=3.394295e-03 dipole="2.790783e-02 -7.282511e-15 5.030258e-15" pol="2.578374e+01 4.391683e-10 2.662520e-11 4.391683e-10 1.201048e+01 -2.499255e-12 2.662520e-11 -2.499255e-12 1.201048e+01" pbc="T T T"
O 1.161489e+00 -5.313708e-13 9.284280e-15 9.714623e-01 -3.297180e-13 7.869685e-14
C 7.091175e-03 -1.248258e-13 -4.845071e-14 -1.173232e+00 3.054074e-13 -4.668253e-14
O -1.159308e+00 2.781780e-13 -1.110230e-13 2.018452e-01 -2.897630e-14 9.195411e-14
3
Lattice="1.800000e+01 0.000000e+00 0.000000e+00 0.000000e+00 1.800000e+01 0.000000e+00 0.000000e+00 0.000000e+00 1.800000e+01" Properties=species:S:1:pos:R:3:force:R:3 energy=5.983189e-03 dipole="-3.846022e-02 2.479840e-15 -9.231258e-15" pol="2.582331e+01 5.760192e-11 -2.296664e-10 5.760192e-11 1.202239e+01 1.728947e-12 -2.296664e-10 1.728947e-12 1.202239e+01" pbc="T T T"
O 1.166235e+00 -8.945600e-13 3.627248e-13 -5.049617e-01 1.528886e-13 -1.925504e-13
C -3.290624e-03 -3.828447e-13 5.218367e-15 1.608744e+00 -5.777752e-13 4.456556e-13
O -1.156260e+00 1.427331e-13 -3.503060e-13 -1.103881e+00 4.275529e-13 -3.336923e-13
3
Lattice="1.800000e+01 0.000000e+00 0.000000e+00 0.000000e+00 1.800000e+01 0.000000e+00 0.000000e+00 0.000000e+00 1.800000e+01" Properties=species:S:1:pos:R:3:force:R:3 energy=8.998399e-03 dipole="-4.417964e-02 3.503343e-14 -1.427161e-14" pol="2.611346e+01 -5.390360e-10 5.715684e-10 -5.390360e-10 1.210173e+01 8.629341e-13 5.715684e-10 8.629341e-13 1.210173e+01" pbc="T T T"
O 1.173089e+00 -9.603269e-13 4.140079e-13 -1.304432e+00 6.080907e-13 -4.703438e-13
C -4.240136e-03 -4.124002e-13 1.841262e-14 1.774818e+00 -1.011735e-12 6.365187e-13
O -1.162402e+00 1.080387e-13 -3.697642e-13 -4.704735e-01 2.254261e-13 -2.447870e-13
3
Lattice="1.800000e+01 0.000000e+00 0.000000e+00 0.000000e+00 1.800000e+01 0.000000e+00 0.000000e+00 0.000000e+00 1.800000e+01" Properties=species:S:1:pos:R:3:force:R:3 energy=5.176609e-03 dipole="-2.968487e-02 5.738896e-15 -1.427510e-14" pol="2.614837e+01 -4.227779e-10 9.523801e-11 -4.227779e-10 1.210890e+01 9.953096e-13 9.523801e-11 9.953096e-13 1.210890e+01" pbc="T T T"
O 1.173097e+00 -1.801620e-12 9.858445e-13 -1.121291e+00 5.202172e-13 -6.452400e-13
C -1.960038e-03 -1.165822e-12 3.209207e-13 1.185603e+00 -5.202367e-13 6.618898e-13
O -1.164126e+00 -5.165025e-13 -3.389434e-13 -6.437016e-02 -4.321509e-14 -4.831005e-14
3
Lattice="1.800000e+01 0.000000e+00 0.000000e+00 0.000000e+00 1.800000e+01 0.000000e+00 0.000000e+00 0.000000e+00 1.800000e+01" Properties=species:S:1:pos:R:3:force:R:3 energy=7.606875e-03 dipole="-4.058270e-02 3.615882e-15 -1.975692e-14" pol="2.610911e+01 2.902203e-10 3.364817e-12 2.902203e-10 1.209994e+01 2.658742e-13 3.364817e-12 2.658742e-13 1.209994e+01" pbc="T T T"
O 1.172800e+00 -1.905770e-12 1.051713e-12 -1.229382e+00 5.203663e-13 -6.618581e-13
C -3.673726e-03 -1.293421e-12 3.803147e-13 1.630899e+00 -6.175856e-13 8.947089e-13
O -1.162543e+00 -6.525391e-13 -2.885923e-13 -4.015993e-01 9.948630e-14 -1.545360e-13
3
Lattice="1.800000e+01 0.000000e+00 0.000000e+00 0.000000e+00 1.800000e+01 0.000000e+00 0.000000e+00 0.000000e+00 1.800000e+01" Properties=species:S:1:pos:R:3:force:R:3 energy=1.931166e-03 dipole="1.416332e-02 -1.011199e-14 1.057799e-14" pol="2.572547e+01 4.412969e-10 2.771134e-10 4.412969e-10 1.199374e+01 9.682926e-13 2.771134e-10 9.682926e-13 1.199374e+01" pbc="T T T"
O 1.161009e+00 -2.000994e-12 1.101160e-12 8.230201e-01 -4.988976e-13 5.165442e-13
C 4.936372e-03 -1.399010e-12 4.393181e-13 -6.000541e-01 3.388250e-13 -3.459501e-13
O -1.157217e+00 -7.869302e-13 -2.311543e-13 -2.229266e-01 9.520196e-14 -9.889141e-14
3
Lattice="1.800000e+01 0.000000e+00 0.000000e+00 0.000000e+00 1.800000e+01 0.000000e+00 0.000000e+00 0.000000e+00 1.800000e+01" Properties=species:S:1:pos:R:3:force:R:3 energy=2.548122e-03 dipole="-4.085875e-03 7.824489e-16 -7.016857e-15" pol="2.567090e+01 -2.852345e-10 -1.882886e-10 -2.852345e-10 1.197866e+01 3.986011e-13 -1.882886e-10 3.986011e-13 1.197866e+01" pbc="T T T"
O 1.160847e+00 -2.615254e-12 1.343080e-12 5.754091e-01 -2.838877e-13 1.948610e-13
C 2.087870e-03 -2.081207e-12 8.082289e-13 1.744050e-01 -6.136443e-14 8.551179e-14
O -1.154919e+00 -1.545238e-12 2.758165e-13 -7.498254e-01 3.824352e-13 -3.281518e-13
3
Lattice="1.800000e+01 0.000000e+00 0.000000e+00 0.000000e+00 1.800000e+01 0.000000e+00 0.000000e+00 0.000000e+00 1.800000e+01" Properties=species:S:1:pos:R:3:force:R:3 energy=5.729064e-03 dipole="-3.510583e-02 3.358735e-14 -1.217289e-14" pol="2.610393e+01 1.678913e-10 1.270010e-09 1.678913e-10 1.209770e+01 -1.088488e-12 1.270010e-09 -1.088488e-12 1.209770e+01" pbc="T T T"
O 1.172390e+00 -3.003722e-12 1.472237e-12 -1.117169e+00 6.007888e-13 -3.864867e-13
C -2.811492e-03 -2.472044e-12 1.026075e-12 1.411337e+00 -9.826779e-13 5.340696e-13
O -1.162785e+00 -1.991902e-12 5.836915e-13 -2.942412e-01 3.198052e-13 -1.502870e-13
3
Lattice="1.800000e+01 0.000000e+00 0.000000e+00 0.000000e+00 1.800000e+01 0.000000e+00 0.000000e+00 0.000000e+00 1.800000e+01" Properties=species:S:1:pos:R:3:force:R:3 energy=3.478813e-03 dipole="-2.558413e-02 -1.021200e-14 -4.326542e-15" pol="2.611549e+01 3.362025e-10 -2.692800e-10 3.362025e-10 1.209961e+01 -1.512652e-12 -2.692800e-10 -1.512652e-12 1.209961e+01" pbc="T T T"
O 1.172131e+00 -3.309755e-12 1.530873e-12 -9.672559e-01 2.149432e-13 -2.522513e-13
C -1.311709e-03 -2.843375e-12 1.195353e-12 1.026366e+00 -1.364152e-13 2.946563e-13
O -1.163653e+00 -2.336323e-12 8.572278e-13 -5.916442e-02 -1.182675e-13 -9.570381e-14
3
Lattice="1.800000e+01 0.000000e+00 0.000000e+00 0.000000e+00 1.800000e+01 0.000000e+00 0.000000e+00 0.000000e+00 1.800000e+01" Properties=species:S:1:pos:R:3:force:R:3 energy=7.489072e-03 dipole="2.981726e-02 -3.913219e-14 6.642943e-15" pol="2.622908e+01 7.058996e-10 2.401672e-10 7.058996e-10 1.213052e+01 -1.623309e-13 2.401672e-10 -1.623309e-13 1.213052e+01" pbc="T T T"
O 1.171369e+00 -3.698649e-12 1.584142e-12 -1.339639e-01 -1.517545e-13 5.285576e-14
C 7.440754e-03 -3.265488e-12 1.406603e-12 -1.177429e+00 8.235799e-13 -2.624963e-13
O -1.169465e+00 -2.772788e-12 1.220541e-12 1.311442e+00 -7.074210e-13 2.225083e-13
3
Lattice="1.800000e+01 0.000000e+00 0.000000e+00 0.000000e+00 1.800000e+01 0.000000e+00 0.000000e+00 0.000000e+00 1.800000e+01" Properties=species:S:1:pos:R:3:force:R:3 energy=4.836810e-03 dipole="1.784714e-02 2.190729e-14 -6.177302e-16" pol="2.622078e+01 -8.566309e-11 -3.103581e-10 -8.566309e-11 1.212703e+01 8.039395e-13 -3.103581e-10 8.039395e-13 1.212703e+01" pbc="T T T"
O 1.171941e+00 -4.387543e-12 1.915261e-12 -3.644851e-01 2.578711e-13 -9.302352e-14
C 5.545118e-03 -4.067505e-12 1.840863e-12 -7.052170e-01 -2.286752e-13 -3.325227e-14
O -1.168617e+00 -3.790575e-12 1.765874e-12 1.069733e+00 -8.991236e-14 4.861113e-14
3
Lattice="1.800000e+01 0.000000e+00 0.000000e+00 0.000000e+00 1.800000e+01 0.000000e+00 0.000000e+00 0.000000e+00 1.800000e+01" Properties=species:S:1:pos:R:3:force:R:3 energy=-1.255754e-03 dipole="4.181802e-03 -2.405791e-14 1.815161e-15" pol="2.591699e+01 -1.205526e-10 6.970899e-10 -1.205526e-10 1.204511e+01 -1.357993e-13 6.970899e-10 -1.357993e-13 1.204511e+01" pbc="T T T"
O 1.165943e+00 -4.648693e-12 2.189608e-12 1.104265e-01 -1.820125e-13 -7.525796e-15
C 3.377001e-03 -4.531975e-12 2.068696e-12 -1.724172e-01 3.470633e-13 1.714621e-15
O -1.160993e+00 -4.372583e-12 1.946519e-12 6.200223e-02 -1.158149e-13 -7.273879e-14
3
Lattice="1.800000e+01 0.000000e+00 0.000000e+00 0.000000e+00 1.800000e+01 0.000000e+00 0.000000e+00 0.000000e+00 1.800000e+01" Properties=species:S:1:pos:R:3:force:R:3 energy=5.419887e-03 dipole="1.795855e-02 -2.003012e-14 3.952846e-15" pol="2.623790e+01 2.257842e-10 -2.035303e-11 2.257842e-10 1.213160e+01 -1.542897e-12 -2.035303e-11 -1.542897e-12 1.213160e+01" pbc="T T T"
O 1.172315e+00 -4.808061e-12 2.362869e-12 -4.039695e-01 -1.567050e-13 -6.163346e-14
C 5.563031e-03 -4.757847e-12 2.192501e-12 -7.079099e-01 3.355794e-13 -1.147551e-13
O -1.169008e+00 -4.668080e-12 2.020354e-12 1.111909e+00 -2.224052e-13 1.227312e-13
3
Lattice="1.800000e+01 0.000000e+00 0.000000e+00 0.000000e+00 1.800000e+01 0.000000e+00 0.000000e+00 0.000000e+00 1.800000e+01" Properties=species:S:1:pos:R:3:force:R:3 energy=7.027542e-03 dipole="-3.117431e-02 8.073680e-15 -6.819593e-15" pol="2.567004e+01 4.951024e-10 1.911252e-10 4.951024e-10 1.197994e+01 -1.642689e-12 1.911252e-10 -1.642689e-12 1.197994e+01" pbc="T T T"
O 1.162347e+00 -4.963460e-12 2.519323e-12 2.206793e-02 1.090403e-13 -3.349417e-14
C -2.138587e-03 -4.931326e-12 2.299463e-12 1.331865e+00 -2.061165e-13 2.714792e-13
O -1.153259e+00 -4.924274e-12 2.084407e-12 -1.354013e+00 1.628491e-13 -3.209134e-13
3
Lattice="1.800000e+01 0.000000e+00 0.000000e+00 0.000000e+00 1.800000e+01 0.000000e+00 0.000000e+00 0.000000e+00 1.800000e+01" Properties=species:S:1:pos:R:3:force:R:3 energy=9.297689e-03 dipole="4.087202e-02 1.288605e-14 1.150518e-14" pol="2.617907e+01 -2.243390e-10 -5.393295e-12 -2.243390e-10 1.211881e+01 3.584673e-12 -5.393295e-12 3.584673e-12 1.211881e+01" pbc="T T T"
O 1.169532e+00 -5.115268e-12 2.688045e-12 2.301156e-01 1.618769e-13 1.074773e-13
C 9.177852e-03 -5.130152e-12 2.416045e-12 -1.626474e+00 -2.504958e-13 -4.249686e-13
O -1.168940e+00 -5.171857e-12 2.135915e-12 1.396431e+00 1.978507e-13 4.415447e-13
3
Lattice="1.800000e+01 0.000000e+00 0.000000e+00 0.000000e+00 1.800000e+01 0.000000e+00 0.000000e+00 0.000000e+00 1.800000e+01" Properties=species:S:1:pos:R:3:force:R:3 energy=2.210228e-03 dipole="-7.296439e-03 -1.860071e-14 -3.119922e-15" pol="2.616970e+01 4.543757e-10 -2.691862e-10 4.543757e-10 1.211284e+01 -1.383859e-12 -2.691862e-10 -1.383859e-12 1.211284e+01" pbc="T T T"
O 1.172308e+00 -5.399941e-12 3.030970e-12 -7.459341e-01 -1.800160e-13 -3.646169e-13
C 1.566438e-03 -5.553587e-12 2.644984e-12 2.903219e-01 1.640597e-13 7.048701e-14
O -1.166004e+00 -5.687440e-12 2.259284e-12 4.555977e-01 -6.613806e-14 1.963565e-13
3
Lattice="1.800000e+01 0.000000e+00 0.000000e+00 0.000000e+00 1.800000e+01 0.000000e+00 0.000000e+00 0.000000e+00 1.800000e+01" Properties=species:S:1:pos:R:3:force:R:3 energy=-1.132565e-03 dipole="6.803008e-03 1.464358e-14 1.627271e-15" pol="2.592864e+01 1.763498e-10 -2.093447e-10 1.763498e-10 1.204829e+01 -9.058256e-13 -2.093447e-10 -9.058256e-13 1.204829e+01" pbc="T T T"
O 1.166046e+00 -5.830033e-12 3.578438e-12 1.354443e-01 1.375966e-13 5.808472e-14
C 3.785658e-03 -6.231830e-12 3.094649e-12 -2.800488e-01 -2.820863e-13 -8.142751e-14
O -1.161412e+00 -6.660209e-12 2.609562e-12 1.446232e-01 1.461945e-13 1.026116e-13
3
Lattice="1.800000e+01 0.000000e+00 0.000000e+00 0.000000e+00 1.800000e+01 0.000000e+00 0.000000e+00 0.000000e+00 1.800000e+01" Properties=species:S:1:pos:R:3:force:R:3 energy=1.643689e-03 dipole="2.109596e-02 2.265982e-14 1.055975e-14" pol="2.606296e+01 -2.780862e-10 -2.155789e-10 -2.780862e-10 1.208511e+01 -1.140060e-12 -2.155789e-10 -1.140060e-12 1.208511e+01" pbc="T T T"
O 1.168198e+00 -6.143946e-12 3.952839e-12 9.594429e-02 1.114874e-13 7.046638e-14
C 6.040235e-03 -6.717681e-12 3.457871e-12 -8.524485e-01 -5.066564e-13 -3.522137e-13
O -1.165258e+00 -7.318748e-12 2.958412e-12 7.565536e-01 4.700732e-13 3.055655e-13
3
Lattice="1.800000e+01 0.000000e+00 0.000000e+00 0.000000e+00 1.800000e+01 0.000000e+00 0.000000e+00 0.000000e+00 1.800000e+01" Properties=species:S:1:pos:R:3:force:R:3 energy=8.324771e-03 dipole="3.258845e-02 1.770380e-14 1.802502e-14" pol="2.564328e+01 4.014812e-10 -2.427384e-10 4.014812e-10 1.197280e+01 -1.574312e-12 -2.427384e-10 -1.574312e-12 1.197280e+01" pbc="T T T"
O 1.158000e+00 -6.421838e-12 4.270290e-12 1.460257e+00 8.010066e-13 6.437044e-13
C 7.791798e-03 -7.135990e-12 3.793433e-12 -1.397620e+00 -7.629520e-13 -5.918569e-13
O -1.156377e+00 -7.851522e-12 3.306687e-12 -6.255644e-02 -6.563722e-14 8.292920e-15
3
Lattice="1.800000e+01 0.000000e+00 0.000000e+00 0.000000e+00 1.800000e+01 0.000000e+00 0.000000e+00 0.000000e+00 1.800000e+01" Properties=species:S:1:pos:R:3:force:R:3 energy=2.666278e-03 dipole="1.967142e-02 2.008755e-14 8.799973e-15" pol="2.573079e+01 -2.546931e-10 -2.091039e-10 -2.546931e-10 1.199548e+01 1.065145e-12 -2.091039e-10 1.065145e-12 1.199548e+01" pbc="T T T"
O 1.160784e+00 -6.695758e-12 4.560754e-12 9.300302e-01 6.263275e-13 3.148585e-13
C 5.786185e-03 -7.472581e-12 4.089113e-12 -8.329120e-01 -7.009605e-13 -2.985996e-13
O -1.157659e+00 -8.268878e-12 3.614993e-12 -9.706404e-02 -7.675389e-15 -9.254709e-14
3
Lattice="1.800000e+01 0.000000e+00 0.000000e+00 0.000000e+00 1.800000e+01 0.000000e+00 0.000000e+00 0.000000e+00 1.800000e+01" Properties=species:S:1:pos:R:3:force:R:3 energy=2.318073e-03 dipole="8.179937e-03 4.344974e-15 -1.418487e-15" pol="2.568677e+01 -2.514903e-10 -2.258243e-10 -2.514903e-10 1.198304e+01 3.024937e-12 -2.258243e-10 3.024937e-12 1.198304e+01" pbc="T T T"
O 1.160475e+00 -8.357400e-12 5.663382e-12 7.959975e-01 3.166659e-13 1.612553e-13
C 3.987887e-03 -8.929210e-12 5.442932e-12 -3.484105e-01 -1.478167e-13 -3.471448e-14
O -1.156008e+00 -9.501571e-12 5.223757e-12 -4.475644e-01 -2.012300e-13 -8.995515e-14
3
Lattice="1.800000e+01 0.000000e+00 0.000000e+00 0.000000e+00 1.800000e+01 0.000000e+00 0.000000e+00 0.000000e+00 1.800000e+01" Properties=species:S:1:pos:R:3:force:R:3 energy=1.849932e-03 dipole="-4.093190e-03 2.749192e-15 5.071613e-15" pol="2.569525e+01 -3.534905e-10 2.282142e-10 -3.534905e-10 1.198526e+01 -2.438362e-12 2.282142e-10 -2.438362e-12 1.198526e+01" pbc="T T T"
O 1.161388e+00 -9.072171e-12 6.093833e-12 5.110756e-01 1.280468e-13 7.760772e-14
C 2.072559e-03 -9.437174e-12 6.003332e-12 1.741193e-01 4.459335e-14 -6.397033e-15
O -1.155487e+00 -9.805987e-12 5.905226e-12 -6.852063e-01 -1.364256e-13 2.417325e-14
3
Lattice="1.800000e+01 0.000000e+00 0.000000e+00 0.000000e+00 1.800000e+01 0.000000e+00 0.000000e+00 0.000000e+00 1.800000e+01" Properties=species:S:1:pos:R:3:force:R:3 energy=2.622784e-03 dipole="-5.920647e-03 -4.786416e-15 -4.309802e-16" pol="2.567126e+01 -4.538945e-11 3.268193e-10 -4.538945e-11 1.197879e+01 -2.275558e-12 3.268193e-10 -2.275558e-12 1.197879e+01" pbc="T T T"
O 1.160946e+00 -9.554989e-12 6.434670e-12 5.357362e-01 5.049688e-14 3.131105e-14
C 1.786810e-03 -9.747765e-12 6.358836e-12 2.527209e-01 8.117871e-14 -5.264550e-15
O -1.154834e+00 -9.938517e-12 6.283744e-12 -7.884734e-01 -1.250664e-13 -7.543590e-14
3
Lattice="1.800000e+01 0.000000e+00 0.000000e+00 0.000000e+00 1.800000e+01 0.000000e+00 0.000000e+00 0.000000e+00 1.800000e+01" Properties=species:S:1:pos:R:3:force:R:3 energy=1.019446e-02 dipole="-4.482989e-02 7.449726e-15 -8.285484e-15" pol="2.615755e+01 -3.972346e-10 -4.043685e-10 -3.972346e-10 1.211373e+01 -1.916675e-12 -4.043685e-10 -1.916675e-12 1.211373e+01" pbc="T T T"
O 1.174092e+00 -1.083314e-11 7.693374e-12 -1.417750e+00 2.639271e-13 -3.747393e-13
C -4.371944e-03 -1.058006e-11 7.415384e-12 1.789900e+00 -3.502519e-13 4.170589e-13
O -1.163364e+00 -1.032439e-11 7.138516e-12 -3.722315e-01 2.135745e-14 -1.467251e-13
3
Lattice="1.800000e+01 0.000000e+00 0.000000e+00 0.000000e+00 1.800000e+01 0.000000e+00 0.000000e+00 0.000000e+00 1.800000e+01" Properties=species:S:1:pos:R:3:force:R:3 energy=5.856605e-03 dipole="2.657003e-02 -1.194907e-14 1.255393e-14" pol="2.566781e+01 6.618783e-10 5.043036e-10 6.618783e-10 1.197891e+01 -3.166629e-12 5.043036e-10 -3.166629e-12 1.197891e+01" pbc="T T T"
O 1.158920e+00 -1.142739e-11 8.281116e-12 1.255211e+00 -4.556276e-13 3.373304e-13
C 6.846658e-03 -1.096913e-11 7.903735e-12 -1.135290e+00 4.137263e-13 -4.057675e-13
O -1.156617e+00 -1.050590e-11 7.516751e-12 -1.198525e-01 5.758276e-14 4.811312e-15
3
Lattice="1.800000e+01 0.000000e+00 0.000000e+00 0.000000e+00 1.800000e+01 0.000000e+00 0.000000e+00 0.000000e+00 1.800000e+01" Properties=species:S:1:pos:R:3:force:R:3 energy=1.502449e-03 dipole="-4.746908e-03 -2.601931e-15 -2.117393e-16" pol="2.570945e+01 -5.583250e-11 3.781293e-10 -5.583250e-11 1.198912e+01 -2.385157e-12 3.781293e-10 -2.385157e-12 1.198912e+01" pbc="T T T"
O 1.161743e+00 -1.191227e-11 8.726856e-12 4.600357e-01 -3.118227e-13 2.277682e-13
C 1.963927e-03 -1.130593e-11 8.312619e-12 2.015282e-01 -9.345858e-14 6.958427e-14
O -1.155778e+00 -1.069582e-11 7.897265e-12 -6.615773e-01 3.257202e-13 -1.968593e-13
3
Lattice="1.800000e+01 0.000000e+00 0.000000e+00 0.000000e+00 1.800000e+01 0.000000e+00 0.000000e+00 0.000000e+00 1.800000e+01" Properties=species:S:1:pos:R:3:force:R:3 energy=3.396074e-03 dipole="4.992821e-03 -8.917472e-15 2.366562e-15" pol="2.621413e+01 -2.822882e-10 -6.111906e-12 -2.822882e-10 1.212463e+01 3.681745e-13 -6.111906e-12 3.681745e-13 1.212463e+01" pbc="T T T"
O 1.172562e+00 -1.212789e-11 8.914261e-12 -6.097706e-01 3.056035e-13 -2.149525e-13
C 3.493884e-03 -1.145995e-11 8.496085e-12 -1.974082e-01 1.770039e-13 -3.835858e-14
O -1.167746e+00 -1.078404e-11 8.078809e-12 8.071878e-01 -4.764663e-13 2.562390e-13
3
Lattice="1.800000e+01 0.000000e+00 0.000000e+00 0.000000e+00 1.800000e+01 0.000000e+00 0.000000e+00 0.000000e+00 1.800000e+01" Properties=species:S:1:pos:R:3:force:R:3 energy=4.196170e-04 dipole="-1.834798e-02 1.280747e-14 -2.782947e-15" pol="2.586124e+01 -2.182648e-10 6.784316e-10 -2.182648e-10 1.203066e+01 3.441559e-13 6.784316e-10 3.441559e-13 1.203066e+01" pbc="T T T"
O 1.165967e+00 -1.233285e-11 9.089339e-12 -2.072881e-01 1.238069e-13 -5.479361e-14
C -1.705387e-04 -1.161289e-11 8.685576e-12 7.627099e-01 -4.707177e-13 2.271580e-13
O -1.158401e+00 -1.090004e-11 8.279490e-12 -5.554726e-01 3.400803e-13 -1.635572e-13
3
Lattice="1.800000e+01 0.000000e+00 0.000000e+00 0.000000e+00 1.800000e+01 0.000000e+00 0.000000e+00 0.000000e+00 1.800000e+01" Properties=species:S:1:pos:R:3:force:R:3 energy=3.408757e-03 dipole="2.887994e-02 -2.056638e-14 1.394024e-14" pol="2.579822e+01 -3.337917e-10 -2.610026e-10 -3.337917e-10 1.201449e+01 -1.782625e-12 -2.610026e-10 -1.782625e-12 1.201449e+01" pbc="T T T"
O 1.161730e+00 -1.253953e-11 9.266158e-12 9.544852e-01 -5.816957e-13 3.059005e-13
C 7.219545e-03 -1.178466e-11 8.885562e-12 -1.211681e+00 7.673778e-13 -3.979275e-13
O -1.159715e+00 -1.102116e-11 8.495568e-12 2.572740e-01 -1.520567e-13 8.111758e-14
3
Lattice="1.800000e+01 0.000000e+00 0.000000e+00 0.000000e+00 1.800000e+01 0.000000e+00 0.000000e+00 0.000000e+00 1.800000e+01" Properties=species:S:1:pos:R:3:force:R:3 energy=5.839159e-03 dipole="-2.295981e-02 1.216065e-14 -2.445369e-15" pol="2.564267e+01 5.750698e-10 6.053679e-10 5.750698e-10 1.197180e+01 1.686399e-12 6.053679e-10 1.686399e-12 1.197180e+01" pbc="T T T"
O 1.161252e+00 -1.280512e-11 9.498105e-12 2.578728e-01 -8.977565e-14 7.657548e-14
C -8.732572e-04 -1.200373e-11 9.150174e-12 9.843751e-01 -6.682778e-13 2.350459e-13
O -1.153163e+00 -1.120686e-11 8.798212e-12 -1.242307e+00 9.062797e-13 -2.766024e-13
3
Lattice="1.800000e+01 0.000000e+00 0.000000e+00 0.000000e+00 1.800000e+01 0.000000e+00 0.000000e+00 0.000000e+00 1.800000e+01" Properties=species:S:1:pos:R:3:force:R:3 energy=8.449999e-03 dipole="-4.495228e-02 2.666296e-14 -9.161581e-15" pol="2.582279e+01 -4.521923e-10 7.685110e-10 -4.521923e-10 1.202317e+01 8.646330e-13 7.685110e-10 8.646330e-13 1.202317e+01" pbc="T T T"
O 1.166542e+00 -1.304484e-11 9.707157e-12 -6.267073e-01 5.181128e-13 -1.785380e-13
C -4.332327e-03 -1.221668e-11 9.401749e-12 1.881215e+00 -1.328739e-12 4.760007e-13
O -1.155857e+00 -1.139556e-11 9.096403e-12 -1.254618e+00 8.891286e-13 -3.551803e-13
3
Lattice="1.800000e+01 0.000000e+00 0.000000e+00 0.000000e+00 1.800000e+01 0.000000e+00 0.000000e+00 0.000000e+00 1.800000e+01" Properties=species:S:1:pos:R:3:force:R:3 energy=5.118518e-03 dipole="-2.771355e-02 2.209880e-14 -1.664874e-15" pol="2.616533e+01 -2.805485e-10 -7.679504e-10 -2.805485e-10 1.211320e+01 -4.835132e-13 -7.679504e-10 -4.835132e-13 1.211320e+01" pbc="T T T"
O 1.173344e+00 -1.355220e-11 1.024815e-11 -1.124469e+00 8.312668e-13 -1.806608e-13
C -1.677144e-03 -1.275718e-11 1.006381e-11 1.104118e+00 -7.846873e-13 1.486488e-13
O -1.164657e+00 -1.197342e-11 9.877252e-12 2.029699e-02 -5.141029e-14 -7.455770e-15
3
Lattice="1.800000e+01 0.000000e+00 0.000000e+00 0.000000e+00 1.800000e+01 0.000000e+00 0.000000e+00 0.000000e+00 1.800000e+01" Properties=species:S:1:pos:R:3:force:R:3 energy=1.717440e-03 dipole="-1.875681e-02 9.300920e-15 -3.198364e-17" pol="2.576833e+01 2.631370e-10 -2.738315e-10 2.631370e-10 1.200559e+01 1.207408e-12 -2.738315e-10 1.207408e-12 1.200559e+01" pbc="T T T"
O 1.163875e+00 -1.411547e-11 1.118238e-11 1.948806e-02 -7.558708e-14 1.184518e-14
C -2.336346e-04 -1.355914e-11 1.104501e-11 7.899794e-01 -4.045341e-13 8.403191e-14
O -1.156279e+00 -1.300549e-11 1.090618e-11 -8.095197e-01 4.219630e-13 -4.242859e-14
3
Lattice="1.800000e+01 0.000000e+00 0.000000e+00 0.000000e+00 1.800000e+01 0.000000e+00 0.000000e+00 0.000000e+00 1.800000e+01" Properties=species:S:1:pos:R:3:force:R:3 energy=1.920905e-03 dipole="2.162161e-02 2.228663e-16 7.178859e-15" pol="2.607451e+01 1.449976e-10 -2.273225e-10 1.449976e-10 1.208825e+01 -7.043965e-13 -2.273225e-10 -7.043965e-13 1.208825e+01" pbc="T T T"
O 1.168402e+00 -1.459154e-11 1.218159e-11 7.796949e-02 4.821079e-14 -4.932046e-14
C 6.101675e-03 -1.428570e-11 1.194101e-11 -8.722853e-01 1.955210e-13 -1.967092e-13
O -1.165570e+00 -1.398452e-11 1.169519e-11 7.943655e-01 -2.109810e-13 1.571126e-13
3
Lattice="1.800000e+01 0.000000e+00 0.000000e+00 0.000000e+00 1.800000e+01 0.000000e+00 0.000000e+00 0.000000e+00 1.800000e+01" Properties=species:S:1:pos:R:3:force:R:3 energy=9.622685e-03 dipole="3.906408e-02 -1.495586e-14 1.688887e-14" pol="2.566974e+01 4.996463e-10 2.263792e-10 4.996463e-10 1.198072e+01 -2.401062e-12 2.263792e-10 -2.401062e-12 1.198072e+01" pbc="T T T"
O 1.158170e+00 -1.481214e-11 1.270455e-11 1.537113e+00 -2.661414e-13 3.220895e-13
C 8.782272e-03 -1.466675e-11 1.240234e-11 -1.669689e+00 2.995591e-13 -4.428758e-13
O -1.157352e+00 -1.450710e-11 1.209340e-11 1.326710e-01 -6.393311e-14 3.263860e-14
3
Lattice="1.800000e+01 0.000000e+00 0.000000e+00 0.000000e+00 1.800000e+01 0.000000e+00 0.000000e+00 0.000000e+00 1.800000e+01" Properties=species:S:1:pos:R:3:force:R:3 energy=5.101495e-03 dipole="-1.866829e-02 -8.089890e-15 -6.312886e-15" pol="2.563976e+01 3.512190e-10 -6.880218e-10 3.512190e-10 1.197073e+01 -2.107191e-12 -6.880218e-10 -2.107191e-12 1.197073e+01" pbc="T T T"
O 1.160934e+00 -1.558922e-11 1.407056e-11 3.532128e-01 1.444596e-13 2.358459e-14
C -2.167156e-04 -1.579519e-11 1.379169e-11 8.006034e-01 2.320047e-13 2.311011e-13
O -1.153371e+00 -1.599027e-11 1.351686e-11 -1.153865e+00 -2.660027e-13 -2.686218e-13
3
Lattice="1.800000e+01 0.000000e+00 0.000000e+00 0.000000e+00 1.800000e+01 0.000000e+00 0.000000e+00 0.000000e+00 1.800000e+01" Properties=species:S:1:pos:R:3:force:R:3 energy=3.960067e-03 dipole="-2.158140e-02 -1.937769e-14 -2.917392e-15" pol="2.616993e+01 2.117233e-10 -2.127284e-10 2.117233e-10 1.211378e+01 2.982162e-12 -2.127284e-10 2.982162e-12 1.211378e+01" pbc="T T T"
O 1.173096e+00 -1.600130e-11 1.481576e-11 -1.020575e+00 -4.996606e-13 -1.778072e-13
C -7.211305e-04 -1.644807e-11 1.463487e-11 8.590271e-01 5.342144e-13 1.792679e-13
O -1.165160e+00 -1.687088e-11 1.445561e-11 1.615060e-01 -5.267463e-14 2.774071e-14
3
Lattice="1.800000e+01 0.000000e+00 0.000000e+00 0.000000e+00 1.800000e+01 0.000000e+00 0.000000e+00 0.000000e+00 1.800000e+01" Properties=species:S:1:pos:R:3:force:R:3 energy=-1.787045e-05 dipole="-2.613924e-03 1.130087e-14 -3.604758e-15" pol="2.577701e+01 -3.406945e-10 -6.525987e-12 -3.406945e-10 1.200737e+01 -1.260595e-12 -6.525987e-12 -1.260595e-12 1.200737e+01" pbc="T T T"
O 1.163137e+00 -1.646276e-11 1.567878e-11 3.285531e-01 2.793050e-13 1.215154e-13
C 2.277650e-03 -1.704583e-11 1.551819e-11 1.099094e-01 -1.140399e-13 -3.565148e-14
O -1.157457e+00 -1.765539e-11 1.535249e-11 -4.384700e-01 -1.073067e-13 -7.374907e-14
3
Lattice="1.800000e+01 0.000000e+00 0.000000e+00 0.000000e+00 1.800000e+01 0.000000e+00 0.000000e+00 0.000000e+00 1.800000e+01" Properties=species:S:1:pos:R:3:force:R:3 energy=2.508679e-03 dipole="1.878123e-02 -3.320902e-15 8.177107e-16" pol="2.613034e+01 7.882658e-10 -2.195541e-10 7.882658e-10 1.210296e+01 1.782539e-13 -2.195541e-10 1.782539e-13 1.210296e+01" pbc="T T T"
O 1.169822e+00 -1.656541e-11 1.593531e-11 -1.218986e-01 -1.920858e-13 2.636764e-16
C 5.649800e-03 -1.722177e-11 1.575480e-11 -7.516803e-01 -1.332345e-13 -1.294216e-13
O -1.166675e+00 -1.785167e-11 1.557655e-11 8.736185e-01 3.302945e-13 1.469558e-13
3
Lattice="1.800000e+01 0.000000e+00 0.000000e+00 0.000000e+00 1.800000e+01 0.000000e+00 0.000000e+00 0.000000e+00 1.800000e+01" Properties=species:S:1:pos:R:3:force:R:3 energy=1.707760e-04 dipole="1.048411e-02 -6.405120e-15 5.041247e-16" pol="2.606141e+01 1.008870e-10 -2.899918e-10 1.008870e-10 1.208402e+01 -1.965133e-12 -2.899918e-10 -1.965133e-12 1.208402e+01" pbc="T T T"
O 1.168783e+00 -1.679067e-11 1.644959e-11 -1.229584e-01 -1.682011e-13 -8.240918e-14
C 4.336140e-03 -1.752032e-11 1.622254e-11 -4.236100e-01 -2.369040e-14 -5.188464e-14
O -1.164654e+00 -1.822722e-11 1.599484e-11 5.465935e-01 2.183469e-13 7.266319e-15
3
Lattice="1.800000e+01 0.000000e+00 0.000000e+00 0.000000e+00 1.800000e+01 0.000000e+00 0.000000e+00 0.000000e+00 1.800000e+01" Properties=species:S:1:pos:R:3:force:R:3 energy=3.987012e-03 dipole="6.523626e-03 -1.220212e-14 2.070234e-15" pol="2.623000e+01 1.261155e-10 -3.373001e-11 1.261155e-10 1.212888e+01 5.620241e-13 -3.373001e-11 5.620241e-13 1.212888e+01" pbc="T T T"
O 1.172804e+00 -1.719818e-11 1.731985e-11 -6.173643e-01 -5.949813e-13 -1.427243e-13
C 3.715351e-03 -1.800723e-11 1.701061e-11 -2.573668e-01 1.474053e-13 -4.792440e-14
O -1.168212e+00 -1.878266e-11 1.670030e-11 8.747423e-01 4.549910e-13 2.270031e-13
3
Lattice="1.800000e+01 0.000000e+00 0.000000e+00 0.000000e+00 1.800000e+01 0.000000e+00 0.000000e+00 0.000000e+00 1.800000e+01" Properties=species:S:1:pos:R:3:force:R:3 energy=7.076145e-03 dipole="4.126847e-02 4.223113e-14 8.089205e-15" pol="2.581775e+01 7.643099e-10 1.904482e-10 7.643099e-10 1.202126e+01 -3.487748e-13 1.904482e-10 -3.487748e-13 1.202126e+01" pbc="T T T"
O 1.161364e+00 -1.762646e-11 1.804110e-11 1.183232e+00 8.421551e-13 3.626414e-13
C 9.138122e-03 -1.838869e-11 1.770576e-11 -1.727855e+00 -1.219602e-12 -4.977487e-13
O -1.160850e+00 -1.918054e-11 1.736558e-11 5.447279e-01 4.350363e-13 1.458800e-13
3
Lattice="1.800000e+01 0.000000e+00 0.000000e+00 0.000000e+00 1.800000e+01 0.000000e+00 0.000000e+00 0.000000e+00 1.800000e+01" Properties=species:S:1:pos:R:3:force:R:3 energy=1.602154e-03 dipole="7.751787e-04 6.544148e-15 2.115108e-16" pol="2.570170e+01 3.147839e-10 -1.326811e-10 3.147839e-10 1.198701e+01 7.973567e-13 -1.326811e-10 7.973567e-13 1.198701e+01" pbc="T T T"
O 1.161219e+00 -1.822857e-11 1.885323e-11 5.971692e-01 3.323138e-13 1.677734e-13
C 2.799645e-03 -1.889143e-11 1.856249e-11 -3.289136e-02 -7.923127e-14 1.617472e-14
O -1.155952e+00 -1.956471e-11 1.827394e-11 -5.642757e-01 -2.887266e-13 -2.279619e-13
3
Lattice="1.800000e+01 0.000000e+00 0.000000e+00 0.000000e+00 1.800000e+01 0.000000e+00 0.000000e+00 0.000000e+00 1.800000e+01" Properties=species:S:1:pos:R:3:force:R:3 energy=3.378010e-03 dipole="7.049057e-03 2.703786e-14 1.250413e-15" pol="2.621027e+01 5.535317e-10 -5.453272e-12 5.535317e-10 1.212365e+01 1.881295e-12 -5.453272e-12 1.881295e-12 1.212365e+01" pbc="T T T"
O 1.172326e+00 -1.849391e-11 1.916699e-11 -5.591575e-01 -1.312693e-13 -2.577992e-14
C 3.793398e-03 -1.907349e-11 1.891910e-11 -2.788752e-01 -4.723050e-13 -4.187987e-14
O -1.167805e+00 -1.970110e-11 1.866998e-11 8.380455e-01 6.484104e-13 1.156649e-13
3
Lattice="1.800000e+01 0.000000e+00 0.000000e+00 0.000000e+00 1.800000e+01 0.000000e+00 0.000000e+00 0.000000e+00 1.800000e+01" Properties=species:S:1:pos:R:3:force:R:3 energy=5.632050e-04 dipole="-1.629515e-02 1.298294e-14 -1.732200e-15" pol="2.604114e+01 -3.119793e-10 -4.670477e-10 -3.119793e-10 1.207890e+01 -1.682558e-12 -4.670477e-10 -1.682558e-12 1.207890e+01" pbc="T T T"
O 1.169889e+00 -1.943114e-11 2.041347e-11 -6.110190e-01 -7.684707e-14 -2.745491e-14
C 1.101262e-04 -1.975483e-11 2.027365e-11 6.603834e-01 -5.957146e-14 8.910474e-14
O -1.162612e+00 -2.011585e-11 2.013356e-11 -4.940403e-02 2.026641e-13 1.293639e-14
3
Lattice="1.800000e+01 0.000000e+00 0.000000e+00 0.000000e+00 1.800000e+01 0.000000e+00 0.000000e+00 0.000000e+00 1.800000e+01" Properties=species:S:1:pos:R:3:force:R:3 energy=7.523336e-03 dipole="-2.936826e-02 3.828668e-15 -7.377207e-15" pol="2.563941e+01 4.989163e-10 4.824103e-10 4.989163e-10 1.197143e+01 4.269602e-13 4.824103e-10 4.269602e-13 1.197143e+01" pbc="T T T"
O 1.161501e+00 -2.039705e-11 2.195936e-11 1.368787e-01 6.458335e-14 5.371098e-14
C -1.901639e-03 -2.041866e-11 2.173558e-11 1.260019e+00 -1.807970e-14 2.666110e-13
O -1.152724e+00 -2.044901e-11 2.151609e-11 -1.396971e+00 1.352937e-14 -2.788963e-13
3
Lattice="1.800000e+01 0.000000e+00 0.000000e+00 0.000000e+00 1.800000e+01 0.000000e+00 0.000000e+00 0.000000e+00 1.800000e+01" Properties=species:S:1:pos:R:3:force:R:3 energy=2.004160e-03 dipole="-1.285521e-02 1.589071e-14 -8.251457e-15" pol="2.614298e+01 2.999001e-11 6.219725e-10 2.999001e-11 1.210594e+01 1.496018e-12 6.219725e-10 1.496018e-12 1.210594e+01" pbc="T T T"
O 1.171978e+00 -2.125345e-11 2.344821e-11 -7.899642e-01 2.885003e-13 -2.116079e-13
C 6.391455e-04 -2.099413e-11 2.309693e-11 5.134987e-01 -4.101414e-13 2.012874e-13
O -1.165117e+00 -2.077292e-11 2.275235e-11 2.764386e-01 1.042816e-13 6.354446e-14
3
Lattice="1.800000e+01 0.000000e+00 0.000000e+00 0.000000e+00 1.800000e+01 0.000000e+00 0.000000e+00 0.000000e+00 1.800000e+01" Properties=species:S:1:pos:R:3:force:R:3 energy=-1.093244e-03 dipole="-7.230169e-03 -1.929770e-14 3.492928e-16" pol="2.594165e+01 6.551323e-11 -2.243154e-10 6.551323e-11 1.205180e+01 1.736533e-12 -2.243154e-10 1.736533e-12 1.205180e+01" pbc="T T T"
O 1.167117e+00 -2.142491e-11 2.372522e-11 -1.858864e-01 -5.548175e-14 -1.365568e-14
C 1.532933e-03 -2.114078e-11 2.337645e-11 2.970899e-01 1.392829e-13 1.608681e-14
O -1.160929e+00 -2.082188e-11 2.301790e-11 -1.112232e-01 -9.378322e-14 1.851505e-14
3
Lattice="1.800000e+01 0.000000e+00 0.000000e+00 0.000000e+00 1.800000e+01 0.000000e+00 0.000000e+00 0.000000e+00 1.800000e+01" Properties=species:S:1:pos:R:3:force:R:3 energy=3.931921e-03 dipole="3.781286e-03 7.420863e-15 -6.242642e-15" pol="2.562833e+01 -1.191730e-10 1.208054e-10 -1.191730e-10 1.196711e+01 3.384787e-12 1.208054e-10 3.384787e-12 1.196711e+01" pbc="T T T"
O 1.159359e+00 -2.163097e-11 2.403609e-11 8.571878e-01 -2.180818e-13 1.663480e-13
C 3.256156e-03 -2.126739e-11 2.368308e-11 -1.623721e-01 -1.245004e-14 4.665183e-14
O -1.154466e+00 -2.090959e-11 2.333678e-11 -6.948056e-01 2.372099e-13 -2.652459e-13
3
Lattice="1.800000e+01 0.000000e+00 0.000000e+00 0.000000e+00 1.800000e+01 0.000000e+00 0.000000e+00 0.000000e+00 1.800000e+01" Properties=species:S:1:pos:R:3:force:R:3 energy=4.190530e-03 dipole="2.910108e-02 -6.423173e-15 -2.835178e-16" pol="2.610993e+01 -2.001051e-10 -4.608867e-10 -2.001051e-10 1.209852e+01 1.404479e-12 -4.608867e-10 1.404479e-12 1.209852e+01" pbc="T T T"
O 1.168690e+00 -2.345603e-11 2.683678e-11 1.486150e-01 5.672483e-14 6.673822e-16
C 7.250007e-03 -2.270942e-11 2.665551e-11 -1.168562e+00 5.828559e-13 -4.389195e-14
O -1.166815e+00 -2.197975e-11 2.648539e-11 1.020009e+00 -5.827628e-13 9.372668e-14
3
Lattice="1.800000e+01 0.000000e+00 0.000000e+00 0.000000e+00 1.800000e+01 0.000000e+00 0.000000e+00 0.000000e+00 1.800000e+01" Properties=species:S:1:pos:R:3:force:R:3 energy=1.150059e-03 dipole="3.354286e-03 -2.188832e-14 1.255851e-14" pol="2.613457e+01 -2.453127e-10 2.619300e-10 -2.453127e-10 1.210339e+01 -8.953447e-13 2.619300e-10 -8.953447e-13 1.210339e+01" pbc="T T T"
O 1.170831e+00 -2.387410e-11 2.766140e-11 -4.494733e-01 2.119117e-13 7.603347e-15
C 3.188353e-03 -2.312187e-11 2.746871e-11 -1.341122e-01 2.897712e-13 -1.454824e-13
O -1.165910e+00 -2.233879e-11 2.726169e-11 5.835927e-01 -5.396071e-13 1.023381e-13
3
Lattice="1.800000e+01 0.000000e+00 0.000000e+00 0.000000e+00 1.800000e+01 0.000000e+00 0.000000e+00 0.000000e+00 1.800000e+01" Properties=species:S:1:pos:R:3:force:R:3 energy=1.292040e-03 dipole="1.006431e-02 -4.353543e-15 3.389621e-15" pol="2.573327e+01 4.009961e-10 -3.281414e-10 4.009961e-10 1.199569e+01 -8.465306e-13 -3.281414e-10 -8.465306e-13 1.199569e+01" pbc="T T T"
O 1.161365e+00 -2.420285e-11 2.840269e-11 7.130268e-01 -4.516683e-13 1.085345e-13
C 4.228443e-03 -2.345639e-11 2.816101e-11 -4.258886e-01 1.890598e-13 -4.228707e-14
O -1.157230e+00 -2.271053e-11 2.791577e-11 -2.871098e-01 2.721407e-13 -4.820332e-14
3
Lattice="1.800000e+01 0.000000e+00 0.000000e+00 0.000000e+00 1.800000e+01 0.000000e+00 0.000000e+00 0.000000e+00 1.800000e+01" Properties=species:S:1:pos:R:3:force:R:3 energy=6.382393e-03 dipole="3.019074e-02 -1.430985e-14 -1.135985e-15" pol="2.568205e+01 6.624260e-10 6.050666e-10 6.624260e-10 1.198311e+01 -1.131395e-12 6.050666e-10 -1.131395e-12 1.198311e+01" pbc="T T T"
O 1.158969e+00 -2.454298e-11 2.923700e-11 1.298587e+00 -7.444678e-13 3.285263e-13
C 7.362547e-03 -2.385483e-11 2.893891e-11 -1.287611e+00 6.799454e-13 -2.619772e-13
O -1.157191e+00 -2.316648e-11 2.864424e-11 -1.089776e-02 6.806046e-14 -5.032798e-14
3
Lattice="1.800000e+01 0.000000e+00 0.000000e+00 0.000000e+00 1.800000e+01 0.000000e+00 0.000000e+00 0.000000e+00 1.800000e+01" Properties=species:S:1:pos:R:3:force:R:3 energy=6.958691e-03 dipole="3.004489e-02 -1.214492e-14 1.425011e-14" pol="2.566198e+01 -3.236389e-11 -9.960480e-10 -3.236389e-11 1.197764e+01 3.151848e-12 -9.960480e-10 3.151848e-12 1.197764e+01" pbc="T T T"
O 1.158519e+00 -2.512099e-11 3.070373e-11 1.350303e+00 -6.858557e-13 3.678082e-13
C 7.334268e-03 -2.461722e-11 3.038629e-11 -1.285002e+00 6.360564e-13 -3.783430e-13
O -1.156729e+00 -2.410007e-11 3.006207e-11 -6.522410e-02 -3.537912e-14 5.236635e-14
3
Lattice="1.800000e+01 0.000000e+00 0.000000e+00 0.000000e+00 1.800000e+01 0.000000e+00 0.000000e+00 0.000000e+00 1.800000e+01" Properties=species:S:1:pos:R:3:force:R:3 energy=6.072200e-03 dipole="-3.402330e-02 1.152784e-15 -1.662979e-15" pol="2.613620e+01 1.739071e-10 5.957556e-10 1.739071e-10 1.210622e+01 3.892882e-12 5.957556e-10 3.892882e-12 1.210622e+01" pbc="T T T"
O 1.172984e+00 -2.530550e-11 3.111103e-11 -1.172842e+00 3.390502e-13 -3.051480e-13
C -2.718272e-03 -2.484577e-11 3.080194e-11 1.361531e+00 -3.913921e-13 2.645693e-13
O -1.163650e+00 -2.436707e-11 3.047921e-11 -1.887564e-01 -5.970003e-15 -2.428030e-14
3
Lattice="1.800000e+01 0.000000e+00 0.000000e+00 0.000000e+00 1.800000e+01 0.000000e+00 0.000000e+00 0.000000e+00 1.800000e+01" Properties=species:S:1:pos:R:3:force:R:3 energy=3.491066e-04 dipole="4.157436e-03 1.035199e-14 -3.956801e-15" pol="2.609534e+01 6.566302e-10 -1.145126e-10 6.566302e-10 1.209292e+01 1.018013e-12 -1.145126e-10 1.018013e-12 1.209292e+01" pbc="T T T"
O 1.169891e+00 -2.593711e-11 3.259491e-11 -3.369539e-01 1.066795e-13 -1.940239e-13
C 3.303476e-03 -2.569605e-11 3.234682e-11 -1.671539e-01 -9.311564e-14 1.028556e-13
O -1.165087e+00 -2.547411e-11 3.211415e-11 5.041172e-01 -4.604903e-14 -6.587253e-14
3
Lattice="1.800000e+01 0.000000e+00 0.000000e+00 0.000000e+00 1.800000e+01 0.000000e+00 0.000000e+00 0.000000e+00 1.800000e+01" Properties=species:S:1:pos:R:3:force:R:3 energy=2.451303e-03 dipole="-1.570215e-02 -9.626863e-15 8.501990e-15" pol="2.571290e+01 -3.838741e-11 2.256004e-10 -3.838741e-11 1.199041e+01 -2.287608e-12 2.256004e-10 -2.287608e-12 1.199041e+01" pbc="T T T"
O 1.162391e+00 -2.623622e-11 3.329392e-11 2.238988e-01 -2.586018e-14 1.110369e-13
C 1.964982e-04 -2.612904e-11 3.309786e-11 6.664513e-01 7.595291e-15 3.892316e-14
O -1.155258e+00 -2.601385e-11 3.289153e-11 -8.903934e-01 1.088692e-13 -1.759540e-13
3
Lattice="1.800000e+01 0.000000e+00 0.000000e+00 0.000000e+00 1.800000e+01 0.000000e+00 0.000000e+00 0.000000e+00 1.800000e+01" Properties=species:S:1:pos:R:3:force:R:3 energy=4.528102e-03 dipole="1.517616e-02 2.848918e-15 3.148119e-15" pol="2.564033e+01 5.059928e-10 1.958217e-10 5.059928e-10 1.197070e+01 -1.121310e-12 1.958217e-10 -1.121310e-12 1.197070e+01" pbc="T T T"
O 1.158931e+00 -2.649429e-11 3.384131e-11 1.074535e+00 -7.863046e-14 1.357167e-13
C 5.008907e-03 -2.644675e-11 3.365642e-11 -6.507302e-01 3.873652e-14 -7.491841e-14
O -1.155415e+00 -2.640510e-11 3.347051e-11 -4.237648e-01 6.600677e-14 -1.228425e-13
3
Lattice="1.800000e+01 0.000000e+00 0.000000e+00 0.000000e+00 1.800000e+01 0.000000e+00 0.000000e+00 0.000000e+00 1.800000e+01" Properties=species:S:1:pos:R:3:force:R:3 energy=1.003782e-02 dipole="-3.875612e-02 1.074012e-14 -1.417833e-14" pol="2.622867e+01 6.660674e-10 -2.158845e-10 6.660674e-10 1.213177e+01 -2.430438e-12 -2.158845e-10 -2.430438e-12 1.213177e+01" pbc="T T T"
O 1.175304e+00 -2.671832e-11 3.430594e-11 -1.472137e+00 3.952904e-14 -2.727158e-13
C -3.487733e-03 -2.670625e-11 3.410902e-11 1.531320e+00 -1.388058e-13 4.284073e-13
O -1.165412e+00 -2.671463e-11 3.393414e-11 -5.924535e-02 1.093252e-13 -1.093969e-13
3
Lattice="1.800000e+01 0.000000e+00 0.000000e+00 0.000000e+00 1.800000e+01 0.000000e+00 0.000000e+00 0.000000e+00 1.800000e+01" Properties=species:S:1:pos:R:3:force:R:3 energy=1.095341e-02 dipole="4.349865e-02 8.298515e-15 -6.807024e-15" pol="2.620502e+01 -2.175245e-10 1.140854e-09 -2.175245e-10 1.212627e+01 2.910475e-13 1.140854e-09 2.910475e-13 1.212627e+01" pbc="T T T"
O 1.169860e+00 -2.701062e-11 3.492758e-11 2.224334e-01 7.717248e-14 -5.589490e-14
C 9.520834e-03 -2.705086e-11 3.472060e-11 -1.725019e+00 -2.591328e-13 -1.511561e-13
O -1.169737e+00 -2.711348e-11 3.453260e-11 1.502658e+00 1.794660e-13 1.560406e-13
3
Lattice="1.800000e+01 0.000000e+00 0.000000e+00 0.000000e+00 1.800000e+01 0.000000e+00 0.000000e+00 0.000000e+00 1.800000e+01" Properties=species:S:1:pos:R:3:force:R:3 energy=1.527093e-03 dipole="-1.201330e-02 -3.837620e-15 3.545438e-15" pol="2.573166e+01 2.488478e-10 -3.103647e-10 2.488478e-10 1.199532e+01 6.190716e-13 -3.103647e-10 6.190716e-13 1.199532e+01" pbc="T T T"
O 1.162602e+00 -2.764617e-11 3.649352e-11 2.510730e-01 3.700626e-14 1.298532e-13
C 7.646871e-04 -2.787642e-11 3.623380e-11 5.084975e-01 1.273037e-13 1.050008e-14
O -1.155914e+00 -2.810583e-11 3.595690e-11 -7.596042e-01 -1.035601e-13 -2.038142e-13
3
Lattice="1.800000e+01 0.000000e+00 0.000000e+00 0.000000e+00 1.800000e+01 0.000000e+00 0.000000e+00 0.000000e+00 1.800000e+01" Properties=species:S:1:pos:R:3:force:R:3 energy=3.870428e-03 dipole="-3.307066e-03 -7.042096e-16 -3.652525e-15" pol="2.562963e+01 -2.906844e-10 -3.486416e-10 -2.906844e-10 1.196746e+01 -6.943502e-13 -3.486416e-10 -6.943502e-13 1.196746e+01" pbc="T T T"
O 1.159772e+00 -2.826077e-11 3.813636e-11 7.014569e-01 2.610044e-13 9.666801e-14
C 2.121777e-03 -2.869792e-11 3.781388e-11 1.419794e-01 7.013113e-14 9.144898e-14
O -1.154113e+00 -2.913242e-11 3.750067e-11 -8.434451e-01 -3.280285e-13 -2.370916e-13
3
Lattice="1.800000e+01 0.000000e+00 0.000000e+00 0.000000e+00 1.800000e+01 0.000000e+00 0.000000e+00 0.000000e+00 1.800000e+01" Properties=species:S:1:pos:R:3:force:R:3 energy=5.334495e-03 dipole="2.448263e-02 1.972655e-14 -1.910814e-15" pol="2.619879e+01 -3.704853e-10 4.573119e-10 -3.704853e-10 1.212178e+01 2.728894e-12 4.573119e-10 2.728894e-12 1.212178e+01" pbc="T T T"
O 1.170945e+00 -2.860748e-11 3.897432e-11 -1.719427e-01 -6.165938e-15 -1.880042e-13
C 6.505302e-03 -2.911193e-11 3.865449e-11 -9.706642e-01 -5.418940e-13 -2.060454e-14
O -1.168582e+00 -2.964350e-11 3.835399e-11 1.142651e+00 6.149606e-13 1.894688e-13
3
Lattice="1.800000e+01 0.000000e+00 0.000000e+00 0.000000e+00 1.800000e+01 0.000000e+00 0.000000e+00 0.000000e+00 1.800000e+01" Properties=species:S:1:pos:R:3:force:R:3 energy=2.411467e-03 dipole="2.520295e-02 5.026021e-15 1.068004e-14" pol="2.580425e+01 -7.497273e-10 -3.813277e-10 -7.497273e-10 1.201578e+01 8.963415e-13 -3.813277e-10 8.963415e-13 1.201578e+01" pbc="T T T"
O 1.162027e+00 -2.876929e-11 3.936052e-11 8.563358e-01 3.863359e-13 2.669254e-13
C 6.575773e-03 -2.932682e-11 3.907392e-11 -1.056351e+00 -3.697530e-13 -3.315512e-13
O -1.159719e+00 -2.987646e-11 3.877559e-11 2.000841e-01 9.969473e-14 1.178557e-13
3
Lattice="1.800000e+01 0.000000e+00 0.000000e+00 0.000000e+00 1.800000e+01 0.000000e+00 0.000000e+00 0.000000e+00 1.800000e+01" Properties=species:S:1:pos:R:3:force:R:3 energy=3.297145e-03 dipole="2.418247e-02 1.019077e-14 2.337206e-14" pol="2.612108e+01 4.261869e-10 2.461349e-10 4.261869e-10 1.210096e+01 1.895629e-12 2.461349e-10 1.895629e-12 1.210096e+01" pbc="T T T"
O 1.169224e+00 -2.896260e-11 3.983550e-11 1.526878e-02 -1.732521e-14 1.670071e-13
C 6.448186e-03 -2.957067e-11 3.958758e-11 -9.693134e-01 -4.147604e-13 -4.380289e-13
O -1.166822e+00 -3.017788e-11 3.930227e-11 9.540959e-01 4.574103e-13 3.616732e-13
3
Lattice="1.800000e+01 0.000000e+00 0.000000e+00 0.000000e+00 1.800000e+01 0.000000e+00 0.000000e+00 0.000000e+00 1.800000e+01" Properties=species:S:1:pos:R:3:force:R:3 energy=8.965586e-03 dipole="-4.438710e-02 -1.396839e-14 -1.113285e-14" pol="2.577715e+01 -6.177655e-10 -8.668345e-10 -6.177655e-10 1.201067e+01 -1.228114e-12 -8.668345e-10 -1.228114e-12 1.201067e+01" pbc="T T T"
O 1.165406e+00 -2.916289e-11 4.030836e-11 -5.038942e-01 -2.159239e-13 -1.164566e-13
C -4.305568e-03 -2.980804e-11 4.006785e-11 1.869429e+00 9.115287e-13 3.805879e-13
O -1.154934e+00 -3.046225e-11 3.983253e-11 -1.365644e+00 -6.766467e-13 -3.178199e-13
3
Lattice="1.800000e+01 0.000000e+00 0.000000e+00 0.000000e+00 1.800000e+01 0.000000e+00 0.000000e+00 0.000000e+00 1.800000e+01" Properties=species:S:1:pos:R:3:force:R:3 energy=5.380487e-04 dipole="-1.164784e-02 1.179985e-14 -4.490814e-16" pol="2.577891e+01 -6.350995e-10 8.092384e-11 -6.350995e-10 1.200809e+01 5.889612e-13 8.092384e-11 5.889612e-13 1.200809e+01" pbc="T T T"
O 1.163640e+00 -3.057878e-11 4.374806e-11 1.368026e-01 1.001353e-13 4.339542e-14
C 8.038959e-04 -3.133151e-11 4.350717e-11 4.897563e-01 2.211616e-13 1.582999e-13
O -1.157024e+00 -3.210163e-11 4.327444e-11 -6.265919e-01 -3.145277e-13 -1.887230e-13
3
Lattice="1.800000e+01 0.000000e+00 0.000000e+00 0.000000e+00 1.800000e+01 0.000000e+00 0.000000e+00 0.000000e+00 1.800000e+01" Properties=species:S:1:pos:R:3:force:R:3 energy=9.156813e-03 dipole="-4.317987e-02 -2.976542e-14 -3.334321e-14" pol="2.574475e+01 1.635293e-10 -5.250636e-10 1.635293e-10 1.200169e+01 -6.049468e-13 -5.250636e-10 -6.049468e-13 1.200169e+01" pbc="T T T"
O 1.164593e+00 -3.182833e-11 4.643525e-11 -4.006061e-01 -1.685272e-13 -1.889213e-13
C -4.123830e-03 -3.238630e-11 4.612542e-11 1.826730e+00 9.484268e-13 7.121519e-13
O -1.154293e+00 -3.292399e-11 4.585705e-11 -1.426231e+00 -7.682930e-13 -5.108669e-13
3
Lattice="1.800000e+01 0.000000e+00 0.000000e+00 0.000000e+00 1.800000e+01 0.000000e+00 0.000000e+00 0.000000e+00 1.800000e+01" Properties=species:S:1:pos:R:3:force:R:3 energy=-5.202592e-04 dipole="-4.204310e-03 1.018190e-14 2.699584e-14" pol="2.604061e+01 1.301804e-10 2.086472e-11 1.301804e-10 1.207828e+01 -1.458964e-12 2.086472e-11 -1.458964e-12 1.207828e+01" pbc="T T T"
O 1.169121e+00 -3.272731e-11 4.828815e-11 -3.707932e-01 -8.537904e-14 1.534287e-13
C 1.953462e-03 -3.305456e-11 4.807053e-11 1.703494e-01 -5.483039e-14 -3.923851e-13
O -1.163394e+00 -3.339837e-11 4.779283e-11 2.004334e-01 1.740881e-13 1.742537e-13
3
Lattice="1.800000e+01 0.000000e+00 0.000000e+00 0.000000e+00 1.800000e+01 0.000000e+00 0.000000e+00 0.000000e+00 1.800000e+01" Properties=species:S:1:pos:R:3:force:R:3 energy=3.849392e-03 dipole="3.343875e-03 -3.826413e-15 -8.088250e-15" pol="2.563026e+01 3.805563e-10 2.925310e-10 3.805563e-10 1.196763e+01 -7.394882e-13 2.925310e-10 -7.394882e-13 1.196763e+01" pbc="T T T"
O 1.159374e+00 -3.321176e-11 4.929637e-11 8.425484e-01 7.659867e-14 7.901072e-14
C 3.133593e-03 -3.340274e-11 4.906237e-11 -1.435472e-01 8.922181e-14 6.122595e-14
O -1.154539e+00 -3.358361e-11 4.884283e-11 -6.989923e-01 -1.719988e-13 -2.320547e-13
3
Lattice="1.800000e+01 0.000000e+00 0.000000e+00 0.000000e+00 1.800000e+01 0.000000e+00 0.000000e+00 0.000000e+00 1.800000e+01" Properties=species:S:1:pos:R:3:force:R:3 energy=3.685359e-04 dipole="1.094896e-02 3.695068e-15 3.050197e-14" pol="2.607129e+01 -1.793902e-11 -1.659000e-11 -1.793902e-11 1.208669e+01 -9.302390e-14 -1.659000e-11 -9.302390e-14 1.208669e+01" pbc="T T T"
O 1.168904e+00 -3.349526e-11 4.991489e-11 -1.379979e-01 3.514767e-14 1.156728e-13
C 4.336608e-03 -3.360264e-11 4.971359e-11 -4.417800e-01 -3.795780e-14 -4.389909e-13
O -1.164976e+00 -3.371339e-11 4.946092e-11 5.798037e-01 4.847162e-14 3.541552e-13
3
Lattice="1.800000e+01 0.000000e+00 0.000000e+00 0.000000e+00 1.800000e+01 0.000000e+00 0.000000e+00 0.000000e+00 1.800000e+01" Properties=species:S:1:pos:R:3:force:R:3 energy=4.896175e-03 dipole="-2.006197e-02 1.204446e-14 -1.156658e-15" pol="2.565346e+01 -1.303169e-10 -5.726569e-10 -1.303169e-10 1.197454e+01 1.260466e-12 -5.726569e-10 1.260466e-12 1.197454e+01" pbc="T T T"
O 1.161232e+00 -3.656279e-11 5.724121e-11 2.889205e-01 -9.531630e-14 7.156149e-14
C -5.282660e-04 -3.594943e-11 5.701972e-11 8.587500e-01 -4.742892e-13 1.111549e-13
O -1.153691e+00 -3.533975e-11 5.679524e-11 -1.147723e+00 6.872489e-13 -1.209284e-13
3
Lattice="1.800000e+01 0.000000e+00 0.000000e+00 0.000000e+00 1.800000e+01 0.000000e+00 0.000000e+00 0.000000e+00 1.800000e+01" Properties=species:S:1:pos:R:3:force:R:3 energy=1.787984e-03 dipole="1.193641e-02 -1.462445e-15 4.583556e-14" pol="2.613796e+01 3.685366e-10 -4.025049e-10 3.685366e-10 1.210455e+01 5.220761e-12 -4.025049e-10 5.220761e-12 1.210455e+01" pbc="T T T"
O 1.170320e+00 -3.781922e-11 6.039528e-11 -2.829669e-01 2.495465e-13 2.045251e-13
C 4.475188e-03 -3.705278e-11 6.021243e-11 -4.771253e-01 2.236035e-13 -7.671029e-13
O -1.166553e+00 -3.629504e-11 5.993960e-11 7.601174e-01 -4.696241e-13 5.241226e-13
3
Lattice="1.800000e+01 0.000000e+00 0.000000e+00 0.000000e+00 1.800000e+01 0.000000e+00 0.000000e+00 0.000000e+00 1.800000e+01" Properties=species:S:1:pos:R:3:force:R:3 energy=3.546867e-03 dipole="9.424883e-04 2.241684e-16 3.983068e-15" pol="2.563759e+01 1.937324e-10 4.727024e-10 1.937324e-10 1.196963e+01 8.596432e-14 4.727024e-10 8.596432e-14 1.196963e+01" pbc="T T T"
O 1.159657e+00 -3.846933e-11 6.248353e-11 7.711200e-01 -4.234997e-13 2.006089e-13
C 2.733619e-03 -3.775385e-11 6.220042e-11 -4.037578e-02 -7.483828e-14 -3.202167e-14
O -1.154593e+00 -3.704401e-11 6.190654e-11 -7.307417e-01 5.220598e-13 -1.812941e-13
3
Lattice="1.800000e+01 0.000000e+00 0.000000e+00 0.000000e+00 1.800000e+01 0.000000e+00 0.000000e+00 0.000000e+00 1.800000e+01" Properties=species:S:1:pos:R:3:force:R:3 energy=1.018250e-03 dipole="1.281922e-02 -4.236706e-15 1.965193e-15" pol="2.609733e+01 -2.014063e-10 -1.177691e-10 -2.014063e-10 1.209374e+01 -3.783234e-13 -1.177691e-10 -3.783234e-13 1.209374e+01" pbc="T T T"
O 1.169492e+00 1.264653e-15 -2.962163e-15 -1.640758e-01 -8.954899e-15 -3.017232e-14
C 4.749610e-03 -2.528722e-15 1.430197e-14 -5.153698e-01 -1.664257e-14 2.234832e-15
O -1.165552e+00 -5.439923e-15 2.885743e-14 6.794745e-01 5.629214e-14 7.491199e-14
3
Lattice="1.800000e+01 0.000000e+00 0.000000e+00 0.000000e+00 1.800000e+01 0.000000e+00 0.000000e+00 0.000000e+00 1.800000e+01" Properties=species:S:1:pos:R:3:force:R:3 energy=8.075550e-03 dipole="-4.393627e-02 2.279221e-15 6.664431e-15" pol="2.606284e+01 5.681591e-10 -2.142181e-10 5.681591e-10 1.208803e+01 6.877378e-12 -2.142181e-10 6.877378e-12 1.208803e+01" pbc="T T T"
O 1.171940e+00 7.987670e-15 -1.125859e-14 -1.182181e+00 -3.353706e-14 7.055335e-14
C -4.190655e-03 2.457752e-17 2.556054e-14 1.777613e+00 7.379509e-15 -1.303415e-13
O -1.161285e+00 -8.179522e-15 5.534762e-14 -5.955261e-01 -3.466731e-14 6.114230e-14
3
Lattice="1.800000e+01 0.000000e+00 0.000000e+00 0.000000e+00 1.800000e+01 0.000000e+00 0.000000e+00 0.000000e+00 1.800000e+01" Properties=species:S:1:pos:R:3:force:R:3 energy=3.371070e-03 dipole="3.024848e-03 3.394448e-15 2.646818e-15" pol="2.621542e+01 -2.425869e-10 -1.873781e-10 -2.425869e-10 1.212494e+01 3.214734e-14 -1.873781e-10 3.214734e-14 1.212494e+01" pbc="T T T"
O 1.172733e+00 3.904837e-14 -6.478798e-14 -6.521777e-01 4.461268e-15 5.105377e-14
C 3.207315e-03 1.101298e-14 3.859407e-14 -1.195643e-01 2.430520e-14 -6.012458e-14
O -1.167635e+00 -1.886723e-14 1.379132e-13 7.717474e-01 3.844854e-16 -4.089522e-14
3
Lattice="1.800000e+01 0.000000e+00 0.000000e+00 0.000000e+00 1.800000e+01 0.000000e+00 0.000000e+00 0.000000e+00 1.800000e+01" Properties=species:S:1:pos:R:3:force:R:3 energy=5.263334e-03 dipole="-3.586610e-02 -7.899983e-15 3.549408e-16" pol="2.606137e+01 -4.132372e-10 2.985867e-10 -4.132372e-10 1.208636e+01 3.381912e-12 2.985867e-10 3.381912e-12 1.208636e+01" pbc="T T T"
O 1.171478e+00 8.429528e-14 -1.234453e-13 -1.030935e+00 -2.794449e-14 1.269780e-13
C -2.919314e-03 2.538818e-14 4.168332e-14 1.450629e+00 5.949284e-14 -2.182177e-13
O -1.161778e+00 -3.265339e-14 2.053357e-13 -4.197740e-01 1.917551e-14 8.903123e-14
3
Lattice="1.800000e+01 0.000000e+00 0.000000e+00 0.000000e+00 1.800000e+01 0.000000e+00 0.000000e+00 0.000000e+00 1.800000e+01" Properties=species:S:1:pos:R:3:force:R:3 energy=3.609473e-03 dipole="-6.098571e-03 -9.354507e-15 2.261741e-15" pol="2.621919e+01 1.153019e-11 -3.165551e-10 1.153019e-11 1.212600e+01 4.807269e-13 -3.165551e-10 4.807269e-13 1.212600e+01" pbc="T T T"
O 1.173359e+00 1.353079e-13 -1.891648e-13 -8.407976e-01 -5.483900e-14 1.875864e-13
C 1.765514e-03 4.382348e-14 4.107254e-14 2.409628e-01 -4.084068e-14 -7.081276e-14
O -1.167174e+00 -4.973698e-14 2.688807e-13 5.998240e-01 5.104597e-14 -1.487389e-13
3
Lattice="1.800000e+01 0.000000e+00 0.000000e+00 0.000000e+00 1.800000e+01 0.000000e+00 0.000000e+00 0.000000e+00 1.800000e+01" Properties=species:S:1:pos:R:3:force:R:3 energy=4.663986e-03 dipole="1.988244e-02 3.472479e-15 -1.114149e-14" pol="2.620500e+01 -4.089820e-11 -1.810574e-10 -4.089820e-11 1.212299e+01 -2.210192e-12 -1.810574e-10 -2.210192e-12 1.212299e+01" pbc="T T T"
O 1.171470e+00 4.277438e-13 -4.004879e-13 -2.835789e-01 -1.444200e-14 7.233069e-14
C 5.875320e-03 1.356609e-13 3.584181e-15 -7.874472e-01 -2.352717e-13 2.883149e-13
O -1.168368e+00 -1.674616e-13 4.148826e-13 1.071062e+00 2.988528e-13 -3.843291e-13
3
Lattice="1.800000e+01 0.000000e+00 0.000000e+00 0.000000e+00 1.800000e+01 0.000000e+00 0.000000e+00 0.000000e+00 1.800000e+01" Properties=species:S:1:pos:R:3:force:R:3 energy=4.306394e-03 dipole="-1.166229e-02 2.005814e-16 -4.030677e-16" pol="2.622788e+01 -4.841919e-10 2.413408e-10 -4.841919e-10 1.212852e+01 -1.018459e-12 2.413408e-10 -1.018459e-12 1.212852e+01" pbc="T T T"
O 1.173877e+00 5.313856e-13 -4.375729e-13 -9.688116e-01 -3.107040e-13 3.178696e-13
C 8.859261e-04 1.717792e-13 -1.176148e-14 4.602856e-01 1.291030e-13 -1.263664e-13
O -1.167029e+00 -1.907258e-13 4.196857e-13 5.085060e-01 1.924022e-13 -2.991161e-13
3
Lattice="1.800000e+01 0.000000e+00 0.000000e+00 0.000000e+00 1.800000e+01 0.000000e+00 0.000000e+00 0.000000e+00 1.800000e+01" Properties=species:S:1:pos:R:3:force:R:3 energy=4.277322e-03 dipole="-9.845661e-03 -5.756152e-15 2.182684e-16" pol="2.562953e+01 -4.634753e-11 -2.160438e-10 -4.634753e-11 1.196756e+01 2.691305e-12 -2.160438e-10 2.691305e-12 1.196756e+01" pbc="T T T"
O 1.160243e+00 7.386187e-13 -4.493515e-13 5.633864e-01 1.884450e-13 -5.668505e-14
C 1.200022e-03 3.455573e-13 -8.917702e-14 4.227637e-01 1.506726e-13 -1.210746e-13
O -1.153627e+00 -4.428552e-14 2.725862e-13 -9.861761e-01 -3.758806e-13 2.838012e-13
3
Lattice="1.800000e+01 0.000000e+00 0.000000e+00 0.000000e+00 1.800000e+01 0.000000e+00 0.000000e+00 0.000000e+00 1.800000e+01" Properties=species:S:1:pos:R:3:force:R:3 energy=3.232685e-03 dipole="1.025057e-02 6.087377e-15 -4.709588e-15" pol="2.619794e+01 -4.557584e-10 3.118512e-10 -4.557584e-10 1.212048e+01 3.518860e-12 3.118512e-10 3.518860e-12 1.212048e+01" pbc="T T T"
O 1.171909e+00 7.767494e-13 -4.279082e-13 -4.644611e-01 -7.653391e-14 1.358717e-13
C 4.353450e-03 4.070354e-13 -1.171158e-13 -4.062686e-01 -1.340344e-13 1.845119e-13
O -1.167660e+00 2.970011e-14 2.052217e-13 8.707487e-01 2.837599e-13 -3.226885e-13
3
Lattice="1.800000e+01 0.000000e+00 0.000000e+00 0.000000e+00 1.800000e+01 0.000000e+00 0.000000e+00 0.000000e+00 1.800000e+01" Properties=species:S:1:pos:R:3:force:R:3 energy=3.109656e-03 dipole="1.101778e-02 6.197274e-15 -3.006027e-15" pol="2.566847e+01 9.984990e-11 1.089893e-10 9.984990e-11 1.197817e+01 1.057659e-12 1.089893e-10 1.057659e-12 1.197817e+01" pbc="T T T"
O 1.159910e+00 7.931641e-13 -4.004091e-13 9.068637e-01 2.942558e-13 -2.920486e-13
C 4.450527e-03 4.573536e-13 -1.364624e-13 -4.705174e-01 -1.330900e-13 1.112390e-13
O -1.155732e+00 1.144739e-13 1.338659e-13 -4.363162e-01 -7.015299e-14 9.389382e-14
3
Lattice="1.800000e+01 0.000000e+00 0.000000e+00 0.000000e+00 1.800000e+01 0.000000e+00 0.000000e+00 0.000000e+00 1.800000e+01" Properties=species:S:1:pos:R:3:force:R:3 energy=-4.076160e-04 dipole="1.280121e-04 -3.808658e-15 4.161225e-15" pol="2.605446e+01 -1.935141e-10 -1.641385e-10 -1.935141e-10 1.208197e+01 1.804449e-12 -1.641385e-10 1.804449e-12 1.208197e+01" pbc="T T T"
O 1.169298e+00 8.188183e-13 -3.580648e-13 -3.177235e-01 -9.996142e-14 9.744775e-14
C 2.754815e-03 5.891015e-13 -1.977217e-13 -5.174831e-03 9.115173e-14 -1.132730e-13
O -1.163843e+00 3.664245e-13 -4.617667e-14 3.228986e-01 -5.537912e-15 3.625955e-14
3
Lattice="1.800000e+01 0.000000e+00 0.000000e+00 0.000000e+00 1.800000e+01 0.000000e+00 0.000000e+00 0.000000e+00 1.800000e+01" Properties=species:S:1:pos:R:3:force:R:3 energy=3.637158e-03 dipole="-1.843678e-03 -6.019649e-15 6.124527e-15" pol="2.563530e+01 -2.948936e-10 3.275554e-10 -2.948936e-10 1.196899e+01 -1.193169e-12 3.275554e-10 -1.193169e-12 1.196899e+01" pbc="T T T"
O 1.159916e+00 8.473329e-13 -3.921373e-13 7.175548e-01 1.356692e-14 -8.830602e-15
C 2.448647e-03 7.422612e-13 -2.885035e-13 7.907368e-02 1.080241e-13 -9.353974e-14
O -1.154229e+00 6.461183e-13 -1.937660e-13 -7.966334e-01 -8.016490e-14 1.160470e-13
3
Lattice="1.800000e+01 0.000000e+00 0.000000e+00 0.000000e+00 1.800000e+01 0.000000e+00 0.000000e+00 0.000000e+00 1.800000e+01" Properties=species:S:1:pos:R:3:force:R:3 energy=6.126392e-03 dipole="-3.000776e-02 4.243367e-15 -1.721034e-15" pol="2.568909e+01 -1.247938e-10 -2.454646e-10 -1.247938e-10 1.198500e+01 -1.430721e-12 -2.454646e-10 -1.430721e-12 1.198500e+01" pbc="T T T"
O 1.162734e+00 9.797848e-13 -5.541804e-13 -3.439904e-03 4.005716e-14 -3.729989e-14
C -1.942444e-03 9.693246e-13 -4.339584e-13 1.278532e+00 -1.194442e-14 -7.080208e-14
O -1.153748e+00 9.530607e-13 -3.043874e-13 -1.275170e+00 1.821361e-14 8.677162e-14
3
Lattice="1.800000e+01 0.000000e+00 0.000000e+00 0.000000e+00 1.800000e+01 0.000000e+00 0.000000e+00 0.000000e+00 1.800000e+01" Properties=species:S:1:pos:R:3:force:R:3 energy=-2.708560e-04 dipole="1.500995e-02 -6.661426e-15 6.765405e-15" pol="2.589389e+01 1.202804e-10 4.073304e-11 1.202804e-10 1.203926e+01 -6.144152e-13 4.073304e-11 -6.144152e-13 1.203926e+01" pbc="T T T"
O 1.164785e+00 1.031759e-12 -6.280125e-13 3.985185e-01 -7.229718e-14 -9.258274e-15
C 5.090807e-03 1.022809e-12 -4.658960e-13 -6.210312e-01 1.159333e-13 -1.889933e-14
O -1.161077e+00 1.029573e-12 -3.184155e-13 2.225541e-01 -4.366390e-14 1.072746e-13
3
Lattice="1.800000e+01 0.000000e+00 0.000000e+00 0.000000e+00 1.800000e+01 0.000000e+00 0.000000e+00 0.000000e+00 1.800000e+01" Properties=species:S:1:pos:R:3:force:R:3 energy=1.547755e-03 dipole="1.849290e-03 5.448329e-15 -3.358167e-15" pol="2.615239e+01 -1.591967e-10 -3.084567e-10 -1.591967e-10 1.210814e+01 1.147549e-12 -3.084567e-10 1.147549e-12 1.210814e+01" pbc="T T T"
O 1.171400e+00 1.136104e-12 -8.465764e-13 -5.231681e-01 6.812333e-14 1.046482e-13
C 3.030493e-03 1.187170e-12 -5.954676e-13 -7.373633e-02 -1.624195e-14 4.051166e-14
O -1.166142e+00 1.228028e-12 -3.385054e-13 5.969082e-01 1.526020e-14 -1.368018e-13
3
Lattice="1.800000e+01 0.000000e+00 0.000000e+00 0.000000e+00 1.800000e+01 0.000000e+00 0.000000e+00 0.000000e+00 1.800000e+01" Properties=species:S:1:pos:R:3:force:R:3 energy=3.816651e-03 dipole="2.583425e-03 5.009743e-15 -9.690022e-15" pol="2.563059e+01 -1.121425e-10 5.151792e-10 -1.121425e-10 1.196772e+01 1.289197e-13 5.151792e-10 1.289197e-13 1.196772e+01" pbc="T T T"
O 1.159552e+00 1.167028e-12 -9.440658e-13 8.252272e-01 -6.349262e-14 -2.759059e-13
C 3.140698e-03 1.245412e-12 -6.560802e-13 -1.108903e-01 -9.157438e-14 1.503563e-13
O -1.154377e+00 1.316344e-12 -3.486699e-13 -7.143300e-01 9.498306e-14 3.646561e-14
3
Lattice="1.800000e+01 0.000000e+00 0.000000e+00 0.000000e+00 1.800000e+01 0.000000e+00 0.000000e+00 0.000000e+00 1.800000e+01" Properties=species:S:1:pos:R:3:force:R:3 energy=-2.719966e-04 dipole="-2.104887e-03 -9.768114e-15 1.193137e-14" pol="2.606230e+01 1.560849e-10 3.230416e-10 1.560849e-10 1.208407e+01 -3.077143e-12 3.230416e-10 -3.077143e-12 1.208407e+01" pbc="T T T"
O 1.169611e+00 1.176592e-12 -1.286425e-12 -3.820657e-01 4.230864e-14 2.561992e-13
C 2.408860e-03 1.438207e-12 -8.640056e-13 8.500834e-02 1.534966e-13 -2.400275e-13
O -1.163882e+00 1.723736e-12 -4.636932e-13 2.970523e-01 -2.172869e-13 -9.042307e-15
3
Lattice="1.800000e+01 0.000000e+00 0.000000e+00 0.000000e+00 1.800000e+01 0.000000e+00 0.000000e+00 0.000000e+00 1.800000e+01" Properties=species:S:1:pos:R:3:force:R:3 energy=4.909330e-03 dipole="1.725912e-02 6.936130e-15 -1.162780e-14" pol="2.622567e+01 -4.898383e-10 -2.439075e-10 -4.898383e-10 1.212829e+01 1.351174e-12 -2.439075e-10 1.351174e-12 1.212829e+01" pbc="T T T"
O 1.172105e+00 1.154359e-12 -1.350248e-12 -3.885707e-01 1.780805e-13 9.463573e-14
C 5.470899e-03 1.486780e-12 -9.394529e-13 -6.814985e-01 3.036434e-14 3.612019e-13
O -1.168675e+00 1.801348e-12 -5.067609e-13 1.070099e+00 -2.184169e-13 -4.092002e-13
3
Lattice="1.800000e+01 0.000000e+00 0.000000e+00 0.000000e+00 1.800000e+01 0.000000e+00 0.000000e+00 0.000000e+00 1.800000e+01" Properties=species:S:1:pos:R:3:force:R:3 energy=8.559689e-03 dipole="3.288153e-02 -1.144387e-14 -8.823017e-15" pol="2.563910e+01 5.811553e-10 -4.738556e-10 5.811553e-10 1.197169e+01 -5.650833e-13 -4.738556e-10 -5.650833e-13 1.197169e+01" pbc="T T T"
O 1.157912e+00 1.247782e-12 -1.672850e-12 1.478588e+00 -5.911059e-13 -3.922410e-13
C 7.862813e-03 1.662980e-12 -1.474268e-12 -1.411038e+00 5.431910e-13 3.400126e-13
O -1.156271e+00 2.086449e-12 -1.259058e-12 -6.746902e-02 9.580980e-15 -6.847059e-14
3
Lattice="1.800000e+01 0.000000e+00 0.000000e+00 0.000000e+00 1.800000e+01 0.000000e+00 0.000000e+00 0.000000e+00 1.800000e+01" Properties=species:S:1:pos:R:3:force:R:3 energy=1.123138e-03 dipole="8.742884e-03 6.124642e-15 -4.339001e-15" pol="2.573569e+01 4.482837e-10 1.699899e-10 4.482837e-10 1.199630e+01 -1.595227e-12 1.699899e-10 -1.595227e-12 1.199630e+01" pbc="T T T"
O 1.161585e+00 1.467211e-12 -1.968455e-12 6.780639e-01 -9.660825e-14 -6.986735e-14
C 4.108510e-03 1.717200e-12 -1.960157e-12 -3.698356e-01 -6.119397e-14 8.636348e-14
O -1.157123e+00 1.953639e-12 -1.942248e-12 -3.082036e-01 1.399103e-13 -7.030620e-14
3
Lattice="1.800000e+01 0.000000e+00 0.000000e+00 0.000000e+00 1.800000e+01 0.000000e+00 0.000000e+00 0.000000e+00 1.800000e+01" Properties=species:S:1:pos:R:3:force:R:3 energy=7.534012e-03 dipole="-2.903044e-02 6.326066e-15 -2.738985e-15" pol="2.563645e+01 -9.797281e-10 3.693470e-10 -9.797281e-10 1.197060e+01 3.703004e-12 3.693470e-10 3.703004e-12 1.197060e+01" pbc="T T T"
O 1.161486e+00 1.599507e-12 -2.203043e-12 1.512988e-01 2.079007e-14 -3.441739e-15
C -1.777222e-03 1.711133e-12 -2.264250e-12 1.246025e+00 -2.155780e-13 5.712747e-14
O -1.152606e+00 1.814581e-12 -2.324875e-12 -1.397397e+00 1.775181e-13 -1.427047e-13
3
Lattice="1.800000e+01 0.000000e+00 0.000000e+00 0.000000e+00 1.800000e+01 0.000000e+00 0.000000e+00 0.000000e+00 1.800000e+01" Properties=species:S:1:pos:R:3:force:R:3 energy=5.142369e-03 dipole="-1.579233e-02 1.014552e-14 -1.844185e-14" pol="2.623868e+01 5.617547e-10 -8.428049e-10 5.617547e-10 1.213165e+01 8.278432e-13 -8.428049e-10 8.278432e-13 1.213165e+01" pbc="T T T"
O 1.174367e+00 1.619934e-12 -2.261556e-12 -1.072867e+00 1.395673e-13 -1.669613e-13
C 2.438784e-04 1.708620e-12 -2.385159e-12 6.224081e-01 -2.005684e-13 3.601895e-13
O -1.167004e+00 1.775215e-12 -2.472729e-12 4.504326e-01 3.733343e-14 -1.299192e-13
3
Lattice="1.800000e+01 0.000000e+00 0.000000e+00 0.000000e+00 1.800000e+01 0.000000e+00 0.000000e+00 0.000000e+00 1.800000e+01" Properties=species:S:1:pos:R:3:force:R:3 energy=1.746690e-03 dipole="4.748534e-04 6.897961e-15 -4.497201e-15" pol="2.569626e+01 3.584335e-10 -4.435981e-11 3.584335e-10 1.198551e+01 -2.015329e-12 -4.435981e-11 -2.015329e-12 1.198551e+01" pbc="T T T"
O 1.161177e+00 1.635654e-12 -2.335756e-12 6.052543e-01 -5.988983e-15 3.373934e-14
C 2.818008e-03 1.693428e-12 -2.540504e-12 -2.018978e-02 -1.256413e-13 6.695538e-14
O -1.155745e+00 1.732895e-12 -2.733983e-12 -5.850632e-01 1.120958e-13 -1.790122e-13
3
Lattice="1.800000e+01 0.000000e+00 0.000000e+00 0.000000e+00 1.800000e+01 0.000000e+00 0.000000e+00 0.000000e+00 1.800000e+01" Properties=species:S:1:pos:R:3:force:R:3 energy=1.936096e-03 dipole="-4.723870e-03 -9.070349e-15 -3.670493e-15" pol="2.569304e+01 3.959356e-10 -2.213027e-10 3.959356e-10 1.198467e+01 8.732132e-14 -2.213027e-10 8.732132e-14 1.198467e+01" pbc="T T T"
O 1.161407e+00 1.550848e-12 -2.444352e-12 5.035958e-01 -1.192834e-13 1.412608e-13
C 2.006936e-03 1.612839e-12 -2.867070e-12 2.010140e-01 3.805974e-14 2.047537e-13
O -1.155367e+00 1.687056e-12 -3.278754e-12 -7.046230e-01 1.083914e-13 -2.937908e-13
3
Lattice="1.800000e+01 0.000000e+00 0.000000e+00 0.000000e+00 1.800000e+01 0.000000e+00 0.000000e+00 0.000000e+00 1.800000e+01" Properties=species:S:1:pos:R:3:force:R:3 energy=6.676322e-03 dipole="2.520792e-02 -3.801172e-16 -7.750696e-15" pol="2.623650e+01 -1.169896e-10 4.897461e-10 -1.169896e-10 1.213194e+01 7.751725e-13 4.897461e-10 7.751725e-13 1.213194e+01" pbc="T T T"
O 1.171850e+00 1.454205e-12 -2.507735e-12 -2.496881e-01 6.655237e-14 -1.491046e-13
C 6.732959e-03 1.570141e-12 -3.008740e-12 -9.941495e-01 1.102863e-13 -1.075212e-13
O -1.169358e+00 1.683778e-12 -3.481121e-12 1.243879e+00 -1.321775e-13 3.820914e-13
3
Lattice="1.800000e+01 0.000000e+00 0.000000e+00 0.000000e+00 1.800000e+01 0.000000e+00 0.000000e+00 0.000000e+00 1.800000e+01" Properties=species:S:1:pos:R:3:force:R:3 energy=7.741468e-03 dipole="-2.970855e-02 2.406732e-15 3.925287e-15" pol="2.623755e+01 2.923151e-10 3.107149e-10 2.923151e-10 1.213277e+01 3.574110e-12 3.107149e-10 3.574110e-12 1.213277e+01" pbc="T T T"
O 1.175115e+00 1.283836e-12 -2.599825e-12 -1.328988e+00 1.830367e-13 -4.513629e-13
C -1.959044e-03 1.486185e-12 -3.136803e-12 1.171730e+00 -1.775575e-13 3.013564e-13
O -1.166100e+00 1.689793e-12 -3.704966e-12 1.572110e-01 -5.055688e-14 1.999157e-13
3
Lattice="1.800000e+01 0.000000e+00 0.000000e+00 0.000000e+00 1.800000e+01 0.000000e+00 0.000000e+00 0.000000e+00 1.800000e+01" Properties=species:S:1:pos:R:3:force:R:3 energy=5.106509e-04 dipole="8.729652e-03 -7.008935e-15 -8.127461e-15" pol="2.609042e+01 3.814103e-10 5.924425e-11 3.814103e-10 1.209172e+01 2.481261e-12 5.924425e-11 2.481261e-12 1.209172e+01" pbc="T T T"
O 1.169600e+00 1.084421e-12 -2.650064e-12 -2.313699e-01 9.827811e-14 -1.600469e-13
C 4.119079e-03 1.390885e-12 -3.277487e-12 -3.512676e-01 1.566546e-13 7.219474e-14
O -1.165147e+00 1.710201e-12 -3.878466e-12 5.826577e-01 -2.568158e-13 2.503487e-13
3
Lattice="1.800000e+01 0.000000e+00 0.000000e+00 0.000000e+00 1.800000e+01 0.000000e+00 0.000000e+00 0.000000e+00 1.800000e+01" Properties=species:S:1:pos:R:3:force:R:3 energy=-1.235708e-03 dipole="2.681108e-03 -3.245845e-15 -1.356842e-14" pol="2.589113e+01 -1.591101e-10 -8.337872e-10 -1.591101e-10 1.203814e+01 3.618695e-12 -8.337872e-10 3.618695e-12 1.203814e+01" pbc="T T T"
O 1.165466e+00 4.081989e-13 -2.966206e-12 1.451423e-01 -6.876432e-14 -1.003887e-14
C 3.160665e-03 7.606006e-13 -3.638794e-12 -1.109363e-01 4.784865e-14 1.139072e-13
O -1.160301e+00 1.117869e-12 -4.291610e-12 -3.419847e-02 -4.672524e-14 -6.748487e-14
3
Lattice="1.800000e+01 0.000000e+00 0.000000e+00 0.000000e+00 1.800000e+01 0.000000e+00 0.000000e+00 0.000000e+00 1.800000e+01" Properties=species:S:1:pos:R:3:force:R:3 energy=6.821699e-03 dipole="2.574782e-02 -1.604175e-14 1.364420e-14" pol="2.563271e+01 -3.947370e-10 -2.509442e-10 -3.947370e-10 1.196930e+01 1.434696e-12 -2.509442e-10 1.434696e-12 1.196930e+01" pbc="T T T"
O 1.158208e+00 3.679774e-13 -3.021878e-12 1.332793e+00 -3.596590e-13 7.124902e-13
C 6.749064e-03 6.783107e-13 -3.652418e-12 -1.105566e+00 3.883909e-13 -5.808297e-13
O -1.155737e+00 1.005489e-12 -4.288120e-12 -2.271618e-01 8.796577e-14 -1.834759e-13
3
Lattice="1.800000e+01 0.000000e+00 0.000000e+00 0.000000e+00 1.800000e+01 0.000000e+00 0.000000e+00 0.000000e+00 1.800000e+01" Properties=species:S:1:pos:R:3:force:R:3 energy=1.172411e-03 dipole="3.375519e-04 1.879357e-15 -2.988924e-15" pol="2.571856e+01 1.013902e-10 -5.867462e-10 1.013902e-10 1.199155e+01 1.544094e-12 -5.867462e-10 1.544094e-12 1.199155e+01" pbc="T T T"
O 1.161687e+00 1.843327e-13 -3.210566e-12 5.435216e-01 -6.765587e-14 1.886190e-13
C 2.791279e-03 3.452923e-13 -3.718513e-12 -1.430699e-02 1.391660e-14 9.517647e-14
O -1.156249e+00 5.052589e-13 -4.216345e-12 -5.292136e-01 1.174313e-13 -2.406563e-13
3
Lattice="1.800000e+01 0.000000e+00 0.000000e+00 0.000000e+00 1.800000e+01 0.000000e+00 0.000000e+00 0.000000e+00 1.800000e+01" Properties=species:S:1:pos:R:3:force:R:3 energy=3.001010e-03 dipole="1.519549e-02 -3.435446e-15 -1.015736e-15" pol="2.568957e+01 2.195396e-10 1.106928e-10 2.195396e-10 1.198406e+01 3.408202e-13 1.106928e-10 3.408202e-13 1.198406e+01" pbc="T T T"
O 1.160143e+00 7.881678e-14 -3.282214e-12 9.418968e-01 -9.380854e-14 2.777606e-13
C 5.107931e-03 1.992854e-13 -3.733735e-12 -6.470605e-01 3.445918e-14 -1.158567e-13
O -1.156446e+00 3.182133e-13 -4.179797e-12 -2.947948e-01 8.315498e-14 -6.346314e-14
3
Lattice="1.800000e+01 0.000000e+00 0.000000e+00 0.000000e+00 1.800000e+01 0.000000e+00 0.000000e+00 0.000000e+00 1.800000e+01" Properties=species:S:1:pos:R:3:force:R:3 energy=1.160274e-02 dipole="-4.154987e-02 7.621208e-15 -1.246162e-14" pol="2.563865e+01 6.079378e-11 7.686707e-10 6.079378e-11 1.197256e+01 1.758285e-12 7.686707e-10 1.758285e-12 1.197256e+01" pbc="T T T"
O 1.162207e+00 -5.440839e-14 -3.361168e-12 -1.022416e-01 4.204954e-14 -9.043625e-14
C -3.732907e-03 4.719978e-14 -3.745261e-12 1.783966e+00 -2.168416e-13 6.352894e-13
O -1.151876e+00 1.411744e-13 -4.126029e-12 -1.681822e+00 2.079526e-13 -5.380083e-13
3
Lattice="1.800000e+01 0.000000e+00 0.000000e+00 0.000000e+00 1.800000e+01 0.000000e+00 0.000000e+00 0.000000e+00 1.800000e+01" Properties=species:S:1:pos:R:3:force:R:3 energy=3.325831e-03 dipole="-2.254345e-02 1.109516e-14 4.947321e-15" pol="2.572653e+01 3.493590e-10 -2.528845e-10 3.493590e-10 1.199453e+01 6.290221e-13 -2.528845e-10 6.290221e-13 1.199453e+01" pbc="T T T"
O 1.163175e+00 -3.699264e-13 -3.549446e-12 5.004166e-02 3.537722e-14 1.337239e-13
C -7.821879e-04 -2.583668e-13 -3.750716e-12 9.551764e-01 -2.133386e-13 7.963943e-14
O -1.155060e+00 -1.653871e-13 -3.966893e-12 -1.005279e+00 1.731060e-13 -1.861753e-13
3
Lattice="1.800000e+01 0.000000e+00 0.000000e+00 0.000000e+00 1.800000e+01 0.000000e+00 0.000000e+00 0.000000e+00 1.800000e+01" Properties=species:S:1:pos:R:3:force:R:3 energy=3.266139e-03 dipole="2.054602e-02 -1.864149e-14 -1.784258e-14" pol="2.615002e+01 1.360715e-10 9.268621e-11 1.360715e-10 1.210837e+01 9.916126e-13 9.268621e-11 9.916126e-13 1.210837e+01" pbc="T T T"
O 1.170202e+00 -6.716659e-13 -3.670162e-12 -1.338270e-01 -1.532306e-13 -1.446311e-13
C 5.978763e-03 -5.337811e-13 -3.762577e-12 -8.200831e-01 3.339201e-13 2.270100e-13
O -1.167168e+00 -3.618262e-13 -3.818600e-12 9.539518e-01 -2.289034e-13 -6.530362e-14
3
Lattice="1.800000e+01 0.000000e+00 0.000000e+00 0.000000e+00 1.800000e+01 0.000000e+00 0.000000e+00 0.000000e+00 1.800000e+01" Properties=species:S:1:pos:R:3:force:R:3 energy=5.308174e-04 dipole="1.786338e-02 -1.970781e-14 -2.679855e-14" pol="2.601784e+01 6.377514e-11 5.908243e-10 6.377514e-11 1.207275e+01 -2.481446e-12 5.908243e-10 -2.481446e-12 1.207275e+01" pbc="T T T"
O 1.167400e+00 -1.375471e-12 -3.860103e-12 1.415523e-01 -1.077989e-13 -1.504968e-13
C 5.543345e-03 -1.057568e-12 -3.769673e-12 -7.263530e-01 4.106048e-13 3.443043e-13
O -1.164044e+00 -7.092856e-13 -3.633737e-12 5.848453e-01 -2.719355e-13 -2.418537e-13
3
Lattice="1.800000e+01 0.000000e+00 0.000000e+00 0.000000e+00 1.800000e+01 0.000000e+00 0.000000e+00 0.000000e+00 1.800000e+01" Properties=species:S:1:pos:R:3:force:R:3 energy=4.137107e-03 dipole="1.282421e-03 -1.032993e-14 -1.124491e-14" pol="2.623945e+01 -6.905847e-11 -6.669255e-10 -6.905847e-11 1.213134e+01 -3.410271e-12 -6.669255e-10 -3.410271e-12 1.213134e+01" pbc="T T T"
O 1.173377e+00 -2.436751e-12 -4.430582e-12 -7.443885e-01 1.051026e-13 2.544643e-13
C 2.933644e-03 -2.182919e-12 -3.918563e-12 -5.049098e-02 1.475263e-13 1.986179e-13
O -1.168068e+00 -1.908005e-12 -3.382261e-12 7.948816e-01 -2.508363e-13 -4.843886e-13
3
Lattice="1.800000e+01 0.000000e+00 0.000000e+00 0.000000e+00 1.800000e+01 0.000000e+00 0.000000e+00 0.000000e+00 1.800000e+01" Properties=species:S:1:pos:R:3:force:R:3 energy=-5.292880e-04 dipole="9.424216e-03 -4.985941e-15 1.171769e-15" pol="2.584205e+01 2.196373e-10 -1.089954e-10 2.196373e-10 1.202505e+01 -1.599459e-13 -1.089954e-10 -1.599459e-13 1.202505e+01" pbc="T T T"
O 1.163943e+00 -2.732364e-12 -4.604017e-12 4.136557e-01 -1.036483e-13 -1.386199e-13
C 4.205569e-03 -2.578992e-12 -4.007761e-12 -3.927342e-01 9.426283e-14 1.451691e-13
O -1.159591e+00 -2.420958e-12 -3.418593e-12 -2.089471e-02 3.545172e-15 8.277213e-14
3
Lattice="1.800000e+01 0.000000e+00 0.000000e+00 0.000000e+00 1.800000e+01 0.000000e+00 0.000000e+00 0.000000e+00 1.800000e+01" Properties=species:S:1:pos:R:3:force:R:3 energy=6.873148e-03 dipole="-3.201121e-02 -2.997859e-15 6.063410e-15" pol="2.568328e+01 1.960125e-10 2.504555e-10 1.960125e-10 1.198362e+01 -2.074921e-12 2.504555e-10 -2.074921e-12 1.198362e+01" pbc="T T T"
O 1.162704e+00 -2.995949e-12 -4.740237e-12 -2.837999e-02 -1.265456e-14 -3.908408e-14
C -2.260860e-03 -2.893649e-12 -4.111192e-12 1.365131e+00 -7.450678e-14 -5.764678e-13
O -1.153498e+00 -2.782183e-12 -3.460587e-12 -1.336833e+00 1.375935e-13 6.065682e-13
3
Lattice="1.800000e+01 0.000000e+00 0.000000e+00 0.000000e+00 1.800000e+01 0.000000e+00 0.000000e+00 0.000000e+00 1.800000e+01" Properties=species:S:1:pos:R:3:force:R:3 energy=8.082224e-03 dipole="-4.371602e-02 1.350134e-14 2.847303e-14" pol="2.581357e+01 -6.917666e-10 3.403060e-11 -6.917666e-10 1.202048e+01 4.337307e-12 3.403060e-11 4.337307e-12 1.202048e+01" pbc="T T T"
O 1.166295e+00 -4.808399e-12 -5.241797e-12 -5.808238e-01 2.508201e-13 3.738043e-13
C -4.110062e-03 -4.476673e-12 -4.658168e-12 1.831695e+00 -5.587243e-13 -9.996008e-13
O -1.155702e+00 -4.156833e-12 -4.096068e-12 -1.250979e+00 3.114265e-13 7.448072e-13
3
Lattice="1.800000e+01 0.000000e+00 0.000000e+00 0.000000e+00 1.800000e+01 0.000000e+00 0.000000e+00 0.000000e+00 1.800000e+01" Properties=species:S:1:pos:R:3:force:R:3 energy=7.458685e-04 dipole="2.119721e-02 -1.236645e-14 -1.914612e-14" pol="2.596885e+01 -2.651346e-10 -5.713365e-11 -2.651346e-10 1.205985e+01 -1.356959e-12 -5.713365e-11 -1.356959e-12 1.205985e+01" pbc="T T T"
O 1.166086e+00 -5.038282e-12 -5.285940e-12 3.379989e-01 -1.149099e-13 -2.090331e-13
C 6.058965e-03 -4.677364e-12 -4.752804e-12 -8.679760e-01 3.980826e-13 5.441719e-13
O -1.163130e+00 -4.300274e-12 -4.197986e-12 5.300320e-01 -1.748464e-13 -3.244844e-13
3
Lattice="1.800000e+01 0.000000e+00 0.000000e+00 0.000000e+00 1.800000e+01 0.000000e+00 0.000000e+00 0.000000e+00 1.800000e+01" Properties=species:S:1:pos:R:3:force:R:3 energy=-1.195805e-03 dipole="1.041173e-03 -4.098963e-15 -9.955042e-15" pol="2.587723e+01 2.839483e-10 8.679019e-11 2.839483e-10 1.203440e+01 -2.486991e-13 8.679019e-11 -2.486991e-13 1.203440e+01" pbc="T T T"
O 1.165237e+00 -5.272049e-12 -5.343713e-12 1.465471e-01 -6.160391e-14 -3.202018e-14
C 2.891530e-03 -4.876971e-12 -4.842901e-12 -4.313001e-02 6.232506e-14 1.427488e-13
O -1.159902e+00 -4.473404e-12 -4.325177e-12 -1.034142e-01 4.990213e-16 2.563554e-15
3
Lattice="1.800000e+01 0.000000e+00 0.000000e+00 0.000000e+00 1.800000e+01 0.000000e+00 0.000000e+00 0.000000e+00 1.800000e+01" Properties=species:S:1:pos:R:3:force:R:3 energy=1.244696e-03 dipole="4.571857e-04 1.621248e-15 8.375062e-15" pol="2.571563e+01 -4.447248e-10 -1.235978e-10 -4.447248e-10 1.199075e+01 1.820882e-13 -1.235978e-10 1.820882e-13 1.199075e+01" pbc="T T T"
O 1.161604e+00 -5.721604e-12 -5.474897e-12 5.537613e-01 -2.414780e-13 -8.269665e-14
C 2.800825e-03 -5.293413e-12 -5.035005e-12 -1.938559e-02 -5.494406e-14 -1.548510e-13
O -1.156199e+00 -4.870513e-12 -4.608563e-12 -5.343744e-01 2.481394e-13 2.929873e-13
3
Lattice="1.800000e+01 0.000000e+00 0.000000e+00 0.000000e+00 1.800000e+01 0.000000e+00 0.000000e+00 0.000000e+00 1.800000e+01" Properties=species:S:1:pos:R:3:force:R:3 energy=6.963382e-03 dipole="-2.987419e-02 2.619532e-15 5.454442e-15" pol="2.621201e+01 6.463212e-10 -4.442065e-10 6.463212e-10 1.212596e+01 2.218903e-12 -4.442065e-10 2.218903e-12 1.212596e+01" pbc="T T T"
O 1.174538e+00 -5.939878e-12 -5.533334e-12 -1.273028e+00 4.248058e-13 4.224346e-13
C -1.995508e-03 -5.517644e-12 -5.144013e-12 1.182523e+00 -3.088436e-13 -3.586209e-13
O -1.165533e+00 -5.079477e-12 -4.749842e-12 9.045393e-02 -6.858273e-14 -1.109506e-13
3
Lattice="1.800000e+01 0.000000e+00 0.000000e+00 0.000000e+00 1.800000e+01 0.000000e+00 0.000000e+00 0.000000e+00 1.800000e+01" Properties=species:S:1:pos:R:3:force:R:3 energy=1.879949e-03 dipole="-1.015384e-02 -6.335811e-15 -6.424993e-15" pol="2.614873e+01 2.123450e-13 1.205999e-10 2.123450e-13 1.210735e+01 8.185140e-13 1.205999e-10 8.185140e-13 1.210735e+01" pbc="T T T"
O 1.172012e+00 -6.203236e-12 -5.593981e-12 -7.513417e-01 1.541922e-13 1.707510e-13
C 1.125808e-03 -5.792607e-12 -5.279857e-12 4.052390e-01 4.125689e-15 -2.800404e-14
O -1.165351e+00 -5.360222e-12 -4.951827e-12 3.460816e-01 -2.643965e-13 -1.713453e-13
3
Lattice="1.800000e+01 0.000000e+00 0.000000e+00 0.000000e+00 1.800000e+01 0.000000e+00 0.000000e+00 0.000000e+00 1.800000e+01" Properties=species:S:1:pos:R:3:force:R:3 energy=6.330226e-03 dipole="-3.807103e-02 4.761955e-15 -6.445090e-15" pol="2.579122e+01 -1.591785e-10 -2.051997e-10 -1.591785e-10 1.201363e+01 5.233966e-12 -2.051997e-10 5.233966e-12 1.201363e+01" pbc="T T T"
O 1.165488e+00 -6.634899e-12 -5.695431e-12 -4.181588e-01 1.635782e-13 -4.657951e-14
C -3.222405e-03 -6.279271e-12 -5.533674e-12 1.599624e+00 -4.784078e-13 -1.421376e-13
O -1.155558e+00 -5.924112e-12 -5.362112e-12 -1.181563e+00 3.528592e-13 1.771046e-13
3
Lattice="1.800000e+01 0.000000e+00 0.000000e+00 0.000000e+00 1.800000e+01 0.000000e+00 0.000000e+00 0.000000e+00 1.800000e+01" Properties=species:S:1:pos:R:3:force:R:3 energy=2.681559e-03 dipole="1.375916e-02 -1.552274e-14 -7.171273e-15" pol="2.569412e+01 4.200390e-12 5.402288e-11 4.200390e-12 1.198523e+01 3.129698e-12 5.402288e-11 3.129698e-12 1.198523e+01" pbc="T T T"
O 1.160326e+00 -7.309935e-12 -6.042165e-12 8.980846e-01 -2.252072e-13 -1.067773e-13
C 4.877171e-03 -7.213045e-12 -6.048553e-12 -5.855040e-01 2.889650e-13 1.337463e-13
O -1.156475e+00 -7.083700e-12 -6.035819e-12 -3.125427e-01 -8.905028e-14 -8.449733e-16
3
Lattice="1.800000e+01 0.000000e+00 0.000000e+00 0.000000e+00 1.800000e+01 0.000000e+00 0.000000e+00 0.000000e+00 1.800000e+01" Properties=species:S:1:pos:R:3:force:R:3 energy=3.329791e-03 dipole="6.004930e-03 9.509994e-15 6.951259e-15" pol="2.564896e+01 3.675070e-11 4.159643e-11 3.675070e-11 1.197274e+01 1.820048e-12 4.159643e-11 1.820048e-12 1.197274e+01" pbc="T T T"
O 1.159762e+00 -7.700135e-12 -6.232555e-12 8.499952e-01 -4.364019e-15 7.108409e-14
C 3.666529e-03 -7.652359e-12 -6.280087e-12 -2.571248e-01 -1.439089e-13 -1.036711e-13
O -1.155002e+00 -7.625732e-12 -6.345642e-12 -5.928542e-01 5.626182e-14 1.024554e-13
3
Lattice="1.800000e+01 0.000000e+00 0.000000e+00 0.000000e+00 1.800000e+01 0.000000e+00 0.000000e+00 0.000000e+00 1.800000e+01" Properties=species:S:1:pos:R:3:force:R:3 energy=8.320981e-03 dipole="3.763015e-02 2.471060e-14 1.641605e-14" pol="2.618276e+01 2.450982e-10 -9.543686e-10 2.450982e-10 1.211926e+01 -2.503438e-12 -9.543686e-10 -2.503438e-12 1.211926e+01" pbc="T T T"
O 1.169839e+00 -8.033142e-12 -6.357492e-12 1.498291e-01 1.216632e-13 -2.944238e-14
C 8.678242e-03 -8.008692e-12 -6.468303e-12 -1.496360e+00 -3.927969e-13 -3.456825e-13
O -1.168839e+00 -8.034172e-12 -6.608166e-12 1.346598e+00 2.300314e-13 2.680387e-13
3
Lattice="1.800000e+01 0.000000e+00 0.000000e+00 0.000000e+00 1.800000e+01 0.000000e+00 0.000000e+00 0.000000e+00 1.800000e+01" Properties=species:S:1:pos:R:3:force:R:3 energy=5.581933e-03 dipole="-3.468808e-02 2.141765e-14 4.764503e-15" pol="2.610276e+01 5.007109e-10 -1.241660e-10 5.007109e-10 1.209733e+01 2.346178e-12 -1.241660e-10 2.346178e-12 1.209733e+01" pbc="T T T"
O 1.172350e+00 -8.308296e-12 -6.439269e-12 -1.106728e+00 1.336093e-13 1.755517e-14
C -2.736679e-03 -8.311149e-12 -6.624714e-12 1.394738e+00 -3.264941e-13 8.377952e-14
O -1.162777e+00 -8.362325e-12 -6.837541e-12 -2.880830e-01 1.290893e-13 5.720073e-14
3
Lattice="1.800000e+01 0.000000e+00 0.000000e+00 0.000000e+00 1.800000e+01 0.000000e+00 0.000000e+00 0.000000e+00 1.800000e+01" Properties=species:S:1:pos:R:3:force:R:3 energy=8.916688e-04 dipole="-2.164037e-02 -1.882302e-14 -8.975037e-15" pol="2.587881e+01 -1.550495e-10 -1.257454e-10 -1.550495e-10 1.203563e+01 -1.215524e-12 -1.257454e-10 -1.215524e-12 1.203563e+01" pbc="T T T"
O 1.166580e+00 -9.008435e-12 -6.647473e-12 -3.163470e-01 -2.354129e-13 -1.690565e-13
C -6.575190e-04 -9.189407e-12 -7.049374e-12 8.974445e-01 3.786356e-13 3.353430e-13
O -1.158565e+00 -9.332329e-12 -7.441656e-12 -5.811566e-01 -2.595191e-13 -2.231134e-13
3
Lattice="1.800000e+01 0.000000e+00 0.000000e+00 0.000000e+00 1.800000e+01 0.000000e+00 0.000000e+00 0.000000e+00 1.800000e+01" Properties=species:S:1:pos:R:3:force:R:3 energy=9.686830e-03 dipole="-3.782420e-02 -3.318597e-14 -2.855138e-14" pol="2.622702e+01 -8.947654e-10 1.806993e-10 -8.947654e-10 1.213117e+01 7.779298e-13 1.806993e-10 7.779298e-13 1.213117e+01" pbc="T T T"
O 1.175309e+00 -9.632331e-12 -6.966970e-12 -1.451692e+00 -7.294063e-13 -6.916737e-13
C -3.248635e-03 -1.004245e-11 -7.458989e-12 1.494752e+00 8.752409e-13 8.757311e-13
O -1.165345e+00 -1.040231e-11 -7.915787e-12 -4.312066e-02 -1.274571e-13 -1.295438e-13
3
Lattice="1.800000e+01 0.000000e+00 0.000000e+00 0.000000e+00 1.800000e+01 0.000000e+00 0.000000e+00 0.000000e+00 1.800000e+01" Properties=species:S:1:pos:R:3:force:R:3 energy=4.852506e-03 dipole="-1.416624e-02 1.068863e-14 1.119104e-14" pol="2.623613e+01 -5.401701e-10 2.543324e-10 -5.401701e-10 1.213086e+01 2.291542e-12 2.543324e-10 2.291542e-12 1.213086e+01" pbc="T T T"
O 1.174210e+00 -1.023864e-11 -7.274109e-12 -1.036022e+00 -2.946346e-13 -2.538550e-13
C 4.946689e-04 -1.069526e-11 -7.730807e-12 5.584964e-01 -3.576923e-14 -2.967026e-14
O -1.167054e+00 -1.118559e-11 -8.217847e-12 4.775023e-01 2.984264e-13 3.174457e-13
3
Lattice="1.800000e+01 0.000000e+00 0.000000e+00 0.000000e+00 1.800000e+01 0.000000e+00 0.000000e+00 0.000000e+00 1.800000e+01" Properties=species:S:1:pos:R:3:force:R:3 energy=1.526757e-03 dipole="-1.999972e-03 -4.595727e-15 -1.176834e-14" pol="2.615146e+01 8.468146e-11 5.053437e-10 8.468146e-11 1.210789e+01 2.368533e-12 5.053437e-10 2.368533e-12 1.210789e+01" pbc="T T T"
O 1.171607e+00 -1.082785e-11 -7.601711e-12 -5.976374e-01 -2.980469e-13 -3.868273e-13
C 2.422782e-03 -1.134944e-11 -8.007704e-12 7.975867e-02 1.064918e-13 2.515144e-13
O -1.165893e+00 -1.186117e-11 -8.389866e-12 5.178746e-01 1.345467e-13 3.511603e-14
3
Lattice="1.800000e+01 0.000000e+00 0.000000e+00 0.000000e+00 1.800000e+01 0.000000e+00 0.000000e+00 0.000000e+00 1.800000e+01" Properties=species:S:1:pos:R:3:force:R:3 energy=1.734745e-03 dipole="-2.533222e-02 -2.756565e-14 -1.165123e-14" pol="2.586897e+01 8.585796e-11 1.935883e-10 8.585796e-11 1.203328e+01 1.152016e-12 1.935883e-10 1.152016e-12 1.203328e+01" pbc="T T T"
O 1.166568e+00 -1.131098e-11 -7.957896e-12 -3.643221e-01 -3.607014e-13 -7.718980e-14
C -1.229454e-03 -1.189227e-11 -8.208524e-12 1.052149e+00 7.756426e-13 3.311582e-13
O -1.158108e+00 -1.243856e-11 -8.442754e-12 -6.878958e-01 -5.140538e-13 -2.982843e-13
3
Lattice="1.800000e+01 0.000000e+00 0.000000e+00 0.000000e+00 1.800000e+01 0.000000e+00 0.000000e+00 0.000000e+00 1.800000e+01" Properties=species:S:1:pos:R:3:force:R:3 energy=1.937559e-03 dipole="-6.918125e-04 -1.553594e-14 -1.623067e-15" pol="2.568933e+01 -7.607302e-10 2.892653e-11 -7.607302e-10 1.198367e+01 2.256548e-12 2.892653e-11 2.256548e-12 1.198367e+01" pbc="T T T"
O 1.161084e+00 -1.152490e-11 -8.124488e-12 5.986999e-01 2.052849e-13 1.597158e-14
C 2.632567e-03 -1.212652e-11 -8.293555e-12 2.939253e-02 2.330485e-13 8.588692e-14
O -1.155523e+00 -1.270061e-11 -8.457028e-12 -6.280943e-01 -3.850351e-13 -1.316935e-13
3
Lattice="1.800000e+01 0.000000e+00 0.000000e+00 0.000000e+00 1.800000e+01 0.000000e+00 0.000000e+00 0.000000e+00 1.800000e+01" Properties=species:S:1:pos:R:3:force:R:3 energy=3.900369e-03 dipole="-3.126122e-02 -3.281389e-14 6.996860e-16" pol="2.580892e+01 -7.388981e-11 4.479649e-11 -7.388981e-11 1.201763e+01 -1.347500e-12 4.479649e-11 -1.347500e-12 1.201763e+01" pbc="T T T"
O 1.165533e+00 -1.254936e-11 -8.568964e-12 -3.305264e-01 -3.248074e-13 5.777820e-14
C -2.148226e-03 -1.322168e-11 -8.646799e-12 1.309762e+00 9.949750e-13 3.225779e-14
O -1.156378e+00 -1.385349e-11 -8.732990e-12 -9.793188e-01 -6.633358e-13 -6.097134e-14
3
Lattice="1.800000e+01 0.000000e+00 0.000000e+00 0.000000e+00 1.800000e+01 0.000000e+00 0.000000e+00 0.000000e+00 1.800000e+01" Properties=species:S:1:pos:R:3:force:R:3 energy=1.607526e-03 dipole="-2.362436e-02 6.192222e-15 -9.512014e-15" pol="2.602114e+01 4.788394e-10 -3.102044e-10 4.788394e-10 1.207411e+01 -3.011218e-12 -3.102044e-10 -3.011218e-12 1.207411e+01" pbc="T T T"
O 1.169916e+00 -1.268201e-11 -8.579655e-12 -7.041408e-01 -2.634344e-13 -8.929216e-14
C -9.742403e-04 -1.330787e-11 -8.686272e-12 9.603507e-01 2.729586e-13 1.526929e-13
O -1.161640e+00 -1.396669e-11 -8.777513e-12 -2.562677e-01 -2.096406e-14 -6.999095e-14
3
Lattice="1.800000e+01 0.000000e+00 0.000000e+00 0.000000e+00 1.800000e+01 0.000000e+00 0.000000e+00 0.000000e+00 1.800000e+01" Properties=species:S:1:pos:R:3:force:R:3 energy=4.301602e-04 dipole="-1.355239e-03 4.714485e-15 -1.460453e-14" pol="2.610296e+01 -1.994309e-10 -2.142438e-10 -1.994309e-10 1.209494e+01 -3.079316e-12 -2.142438e-10 -3.079316e-12 1.209494e+01" pbc="T T T"
O 1.170484e+00 -1.294178e-11 -8.591097e-12 -4.667758e-01 -1.852753e-13 -1.661246e-13
C 2.529312e-03 -1.355121e-11 -8.746621e-12 5.440101e-02 -1.122282e-14 1.980786e-13
O -1.164838e+00 -1.417174e-11 -8.877036e-12 4.123717e-01 1.896421e-13 -1.122147e-13
3
Lattice="1.800000e+01 0.000000e+00 0.000000e+00 0.000000e+00 1.800000e+01 0.000000e+00 0.000000e+00 0.000000e+00 1.800000e+01" Properties=species:S:1:pos:R:3:force:R:3 energy=1.002217e-02 dipole="-4.335210e-02 -3.062856e-14 4.012038e-15" pol="2.617294e+01 -2.173098e-10 -2.354475e-10 -2.173098e-10 1.211761e+01 -1.810637e-13 -2.354475e-10 -1.810637e-13 1.211761e+01" pbc="T T T"
O 1.174396e+00 -1.326511e-11 -8.565840e-12 -1.426705e+00 -8.133883e-13 -2.355976e-13
C -4.105585e-03 -1.384996e-11 -8.792051e-12 1.726964e+00 1.007187e-12 1.748805e-13
O -1.163769e+00 -1.440630e-11 -9.039019e-12 -3.003365e-01 -2.374387e-13 4.605188e-14
3
Lattice="1.800000e+01 0.000000e+00 0.000000e+00 0.000000e+00 1.800000e+01 0.000000e+00 0.000000e+00 0.000000e+00 1.800000e+01" Properties=species:S:1:pos:R:3:force:R:3 energy=1.136526e-03 dipole="-2.290849e-02 -3.165146e-14 1.685549e-15" pol="2.598033e+01 8.560093e-10 -4.393940e-10 8.560093e-10 1.206307e+01 1.315698e-13 -4.393940e-10 1.315698e-13 1.206307e+01" pbc="T T T"
O 1.168956e+00 -1.364240e-11 -8.507751e-12 -5.912502e-01 -4.799622e-13 -1.478168e-13
C -8.568166e-04 -1.418664e-11 -8.849064e-12 9.365924e-01 7.857827e-13 1.474570e-13
O -1.160766e+00 -1.467896e-11 -9.203886e-12 -3.454007e-01 -3.866144e-13 -2.088061e-14
3
Lattice="1.800000e+01 0.000000e+00 0.000000e+00 0.000000e+00 1.800000e+01 0.000000e+00 0.000000e+00 0.000000e+00 1.800000e+01" Properties=species:S:1:pos:R:3:force:R:3 energy=1.141306e-04 dipole="5.458931e-04 -2.949051e-14 7.962235e-15" pol="2.608656e+01 6.927058e-11 -3.217671e-11 6.927058e-11 1.209056e+01 -1.512837e-12 -3.217671e-11 -1.512837e-12 1.209056e+01" pbc="T T T"
O 1.170004e+00 -1.422959e-11 -8.504244e-12 -3.884235e-01 -3.420518e-13 -8.105610e-14
C 2.829899e-03 -1.469480e-11 -8.894512e-12 -2.196704e-02 4.554783e-13 -1.081981e-13
O -1.164581e+00 -1.510002e-11 -9.300829e-12 4.103918e-01 -1.086468e-13 1.652416e-13
3
Lattice="1.800000e+01 0.000000e+00 0.000000e+00 0.000000e+00 1.800000e+01 0.000000e+00 0.000000e+00 0.000000e+00 1.800000e+01" Properties=species:S:1:pos:R:3:force:R:3 energy=3.913451e-03 dipole="8.563407e-03 -3.112708e-15 -8.628074e-16" pol="2.563680e+01 2.311617e-10 1.712864e-11 2.311617e-10 1.196950e+01 -1.659314e-12 1.712864e-11 -1.659314e-12 1.196950e+01" pbc="T T T"
O 1.159345e+00 -1.464082e-11 -8.563222e-12 9.384626e-01 1.995281e-13 1.440700e-13
C 4.076661e-03 -1.497297e-11 -8.915804e-12 -3.673210e-01 -2.627438e-14 -4.625505e-14
O -1.154859e+00 -1.529987e-11 -9.257967e-12 -5.711187e-01 -1.686487e-13 -2.698040e-13
3
Lattice="1.800000e+01 0.000000e+00 0.000000e+00 0.000000e+00 1.800000e+01 0.000000e+00 0.000000e+00 0.000000e+00 1.800000e+01" Properties=species:S:1:pos:R:3:force:R:3 energy=-5.680518e-04 dipole="-1.558492e-04 2.373125e-14 -8.522116e-15" pol="2.581075e+01 1.510208e-10 2.737710e-10 1.510208e-10 1.201646e+01 1.836368e-13 2.737710e-10 1.836368e-13 1.201646e+01" pbc="T T T"
O 1.163814e+00 -1.612164e-11 -8.687896e-12 2.926228e-01 1.350282e-13 -1.549615e-14
C 2.717398e-03 -1.602476e-11 -8.804958e-12 6.520427e-03 -3.935674e-13 1.501704e-13
O -1.158312e+00 -1.597790e-11 -8.905071e-12 -2.991437e-01 2.627832e-13 -1.112216e-13
3
Lattice="1.800000e+01 0.000000e+00 0.000000e+00 0.000000e+00 1.800000e+01 0.000000e+00 0.000000e+00 0.000000e+00 1.800000e+01" Properties=species:S:1:pos:R:3:force:R:3 energy=8.716168e-03 dipole="4.540699e-02 -1.527753e-14 6.143427e-15" pol="2.581714e+01 1.240623e-09 7.076390e-10 1.240623e-09 1.202170e+01 -3.300086e-12 7.076390e-10 -3.300086e-12 1.202170e+01" pbc="T T T"
O 1.161143e+00 -1.662956e-11 -8.471035e-12 1.280496e+00 -2.958739e-13 2.116995e-13
C 9.844916e-03 -1.640847e-11 -8.682346e-12 -1.901812e+00 4.420226e-13 -3.060572e-13
O -1.160995e+00 -1.617456e-11 -8.894676e-12 6.214275e-01 -1.814408e-13 5.459814e-14
3
Lattice="1.800000e+01 0.000000e+00 0.000000e+00 0.000000e+00 1.800000e+01 0.000000e+00 0.000000e+00 0.000000e+00 1.800000e+01" Properties=species:S:1:pos:R:3:force:R:3 energy=2.393878e-03 dipole="1.383585e-03 1.592440e-14 -1.021882e-15" pol="2.618412e+01 5.798618e-10 3.066425e-10 5.798618e-10 1.211660e+01 1.779172e-13 3.066425e-10 1.779172e-13 1.211660e+01" pbc="T T T"
O 1.172141e+00 -1.704209e-11 -8.266773e-12 -6.093905e-01 3.239786e-13 -2.043936e-13
C 2.958886e-03 -1.667291e-11 -8.573215e-12 -5.490689e-02 -2.348984e-13 1.441409e-14
O -1.166825e+00 -1.633612e-11 -8.876868e-12 6.643000e-01 -5.926728e-14 2.085556e-13
3
Lattice="1.800000e+01 0.000000e+00 0.000000e+00 0.000000e+00 1.800000e+01 0.000000e+00 0.000000e+00 0.000000e+00 1.800000e+01" Properties=species:S:1:pos:R:3:force:R:3 energy=4.361047e-03 dipole="2.127452e-02 -2.294805e-14 9.662399e-15" pol="2.567817e+01 -1.598027e-10 1.200625e-10 -1.598027e-10 1.198132e+01 1.379587e-13 1.200625e-10 1.379587e-13 1.198132e+01" pbc="T T T"
O 1.159513e+00 -1.831009e-11 -7.852287e-12 1.107699e+00 -5.664592e-13 2.677727e-13
C 6.053100e-03 -1.784248e-11 -8.055443e-12 -9.075278e-01 6.246286e-13 -2.669795e-13
O -1.156529e+00 -1.734099e-11 -8.271851e-12 -2.001147e-01 -2.898527e-15 -7.973720e-14
3
Lattice="1.800000e+01 0.000000e+00 0.000000e+00 0.000000e+00 1.800000e+01 0.000000e+00 0.000000e+00 0.000000e+00 1.800000e+01" Properties=species:S:1:pos:R:3:force:R:3 energy=6.850071e-03 dipole="-3.023280e-02 -1.024952e-15 2.299769e-15" pol="2.566708e+01 8.295916e-10 3.142034e-11 8.295916e-10 1.197904e+01 4.924781e-13 3.142034e-11 4.924781e-13 1.197904e+01" pbc="T T T"
O 1.162243e+00 -1.899344e-11 -7.542336e-12 4.839107e-02 -1.185922e-13 3.995734e-14
C -1.976599e-03 -1.852664e-11 -7.686337e-12 1.292123e+00 -3.502871e-13 4.051218e-14
O -1.153236e+00 -1.803690e-11 -7.839243e-12 -1.340591e+00 4.914731e-13 -1.380282e-13
3
Lattice="1.800000e+01 0.000000e+00 0.000000e+00 0.000000e+00 1.800000e+01 0.000000e+00 0.000000e+00 0.000000e+00 1.800000e+01" Properties=species:S:1:pos:R:3:force:R:3 energy=4.741348e-03 dipole="-2.971636e-02 2.689565e-14 -7.405805e-15" pol="2.574004e+01 7.058497e-10 5.091048e-10 7.058497e-10 1.199881e+01 7.867166e-13 5.091048e-10 7.867166e-13 1.199881e+01" pbc="T T T"
O 1.163876e+00 -1.933211e-11 -7.307192e-12 -1.272357e-01 1.989561e-13 -1.005102e-14
C -1.905289e-03 -1.886138e-11 -7.492521e-12 1.257062e+00 -7.441220e-13 2.721371e-13
O -1.154923e+00 -1.842260e-11 -7.667504e-12 -1.129905e+00 5.225004e-13 -2.172059e-13
3
Lattice="1.800000e+01 0.000000e+00 0.000000e+00 0.000000e+00 1.800000e+01 0.000000e+00 0.000000e+00 0.000000e+00 1.800000e+01" Properties=species:S:1:pos:R:3:force:R:3 energy=7.735455e-03 dipole="-3.437130e-02 2.271915e-14 -1.029429e-14" pol="2.567883e+01 2.946746e-10 2.324439e-10 2.946746e-10 1.198266e+01 2.993682e-13 2.324439e-10 2.993682e-13 1.198266e+01" pbc="T T T"
O 1.162735e+00 -1.951586e-11 -7.151001e-12 -6.366781e-02 2.502103e-13 -1.723046e-14
C -2.623968e-03 -1.907663e-11 -7.371966e-12 1.466865e+00 -7.120652e-13 3.706867e-13
O -1.153244e+00 -1.866553e-11 -7.581387e-12 -1.403283e+00 6.310928e-13 -2.722899e-13
3
Lattice="1.800000e+01 0.000000e+00 0.000000e+00 0.000000e+00 1.800000e+01 0.000000e+00 0.000000e+00 0.000000e+00 1.800000e+01" Properties=species:S:1:pos:R:3:force:R:3 energy=4.789003e-03 dipole="-1.759977e-02 1.829087e-14 -7.273499e-15" pol="2.564361e+01 1.836498e-10 -6.370999e-10 1.836498e-10 1.197172e+01 2.086739e-12 -6.370999e-10 2.086739e-12 1.197172e+01" pbc="T T T"
O 1.161005e+00 -1.972785e-11 -6.949460e-12 3.651259e-01 8.268696e-15 -1.356427e-14
C -8.110170e-06 -1.933522e-11 -7.218368e-12 7.543482e-01 -4.683060e-13 2.030413e-13
O -1.153481e+00 -1.897535e-11 -7.478718e-12 -1.119520e+00 4.875332e-13 -3.875948e-13
3
Lattice="1.800000e+01 0.000000e+00 0.000000e+00 0.000000e+00 1.800000e+01 0.000000e+00 0.000000e+00 0.000000e+00 1.800000e+01" Properties=species:S:1:pos:R:3:force:R:3 energy=2.465333e-03 dipole="-8.301688e-03 -4.291137e-15 -8.805206e-16" pol="2.617661e+01 -3.438338e-10 -3.997550e-11 -3.438338e-10 1.211472e+01 2.238479e-12 -3.997550e-11 2.238479e-12 1.211472e+01" pbc="T T T"
O 1.172535e+00 -1.987126e-11 -6.795182e-12 -7.820851e-01 2.531779e-13 -1.290807e-13
C 1.421173e-03 -1.955020e-11 -7.097908e-12 3.300054e-01 1.114758e-14 1.035132e-13
O -1.166084e+00 -1.921246e-11 -7.403573e-12 4.520635e-01 -2.571215e-13 1.236547e-13
3
Lattice="1.800000e+01 0.000000e+00 0.000000e+00 0.000000e+00 1.800000e+01 0.000000e+00 0.000000e+00 0.000000e+00 1.800000e+01" Properties=species:S:1:pos:R:3:force:R:3 energy=1.155900e-03 dipole="2.160893e-02 5.812027e-16 9.680464e-15" pol="2.584438e+01 -6.009438e-10 -8.365918e-12 -6.009438e-10 1.202634e+01 -1.931761e-12 -8.365918e-12 -1.931761e-12 1.202634e+01" pbc="T T T"
O 1.163255e+00 -2.055666e-11 -6.226099e-12 6.708054e-01 -1.937247e-14 2.011525e-13
C 6.115017e-03 -2.048556e-11 -6.530222e-12 -9.004931e-01 -4.139071e-14 -3.058307e-13
O -1.160333e+00 -2.041753e-11 -6.847231e-12 2.297472e-01 2.986636e-14 1.239297e-13
3
Lattice="1.800000e+01 0.000000e+00 0.000000e+00 0.000000e+00 1.800000e+01 0.000000e+00 0.000000e+00 0.000000e+00 1.800000e+01" Properties=species:S:1:pos:R:3:force:R:3 energy=4.426210e-03 dipole="1.650532e-02 2.530568e-14 9.060441e-15" pol="2.621394e+01 3.171931e-10 -1.252583e-10 3.171931e-10 1.212511e+01 -2.184896e-12 -1.252583e-10 -2.184896e-12 1.212511e+01" pbc="T T T"
O 1.171881e+00 -2.075421e-11 -6.118909e-12 -3.754567e-01 2.296520e-13 -7.546111e-14
C 5.341898e-03 -2.068622e-11 -6.402572e-12 -6.527980e-01 -3.984504e-13 -1.675485e-13
O -1.168378e+00 -2.066930e-11 -6.688125e-12 1.028284e+00 1.635687e-13 2.411069e-13
3
Lattice="1.800000e+01 0.000000e+00 0.000000e+00 0.000000e+00 1.800000e+01 0.000000e+00 0.000000e+00 0.000000e+00 1.800000e+01" Properties=species:S:1:pos:R:3:force:R:3 energy=6.655124e-03 dipole="-3.672682e-02 2.248263e-14 -7.182024e-15" pol="2.575049e+01 5.249693e-10 3.247422e-10 5.249693e-10 1.200241e+01 7.225822e-13 3.247422e-10 7.225822e-13 1.200241e+01" pbc="T T T"
O 1.164490e+00 -2.147834e-11 -5.735718e-12 -2.906657e-01 1.771724e-13 -9.878852e-14
C -3.005931e-03 -2.145371e-11 -5.909478e-12 1.551884e+00 -2.532456e-13 3.034776e-13
O -1.154723e+00 -2.146566e-11 -6.072626e-12 -1.261312e+00 9.125788e-14 -1.557897e-13
3
Lattice="1.800000e+01 0.000000e+00 0.000000e+00 0.000000e+00 1.800000e+01 0.000000e+00 0.000000e+00 0.000000e+00 1.800000e+01" Properties=species:S:1:pos:R:3:force:R:3 energy=2.237791e-03 dipole="-2.686330e-02 -1.287193e-14 -5.463244e-15" pol="2.585151e+01 4.890027e-10 -4.475293e-11 4.890027e-10 1.202871e+01 -7.102375e-13 -4.475293e-11 -7.102375e-13 1.202871e+01" pbc="T T T"
O 1.166247e+00 -2.168589e-11 -5.591314e-12 -3.508608e-01 -1.149061e-13 7.431953e-15
C -1.477447e-03 -2.169942e-11 -5.755852e-12 1.118556e+00 1.981391e-13 2.126203e-13
O -1.157628e+00 -2.168260e-11 -5.913826e-12 -7.677675e-01 -1.145075e-13 -1.383626e-13
3
Lattice="1.800000e+01 0.000000e+00 0.000000e+00 0.000000e+00 1.800000e+01 0.000000e+00 0.000000e+00 0.000000e+00 1.800000e+01" Properties=species:S:1:pos:R:3:force:R:3 energy=3.662509e-03 dipole="-3.156022e-02 -2.168681e-14 -3.607341e-16" pol="2.603464e+01 -2.300305e-10 -7.418958e-10 -2.300305e-10 1.207859e+01 1.207862e-12 -7.418958e-10 1.207862e-12 1.207859e+01" pbc="T T T"
O 1.170643e+00 -2.240388e-11 -4.975267e-12 -8.871687e-01 -2.091076e-13 -1.610431e-13
C -2.237723e-03 -2.243226e-11 -5.212133e-12 1.280978e+00 3.426707e-13 1.731415e-13
O -1.161455e+00 -2.241638e-11 -5.460168e-12 -3.938834e-01 -1.800576e-13 -1.123704e-13
3
Lattice="1.800000e+01 0.000000e+00 0.000000e+00 0.000000e+00 1.800000e+01 0.000000e+00 0.000000e+00 0.000000e+00 1.800000e+01" Properties=species:S:1:pos:R:3:force:R:3 energy=2.041980e-03 dipole="2.050693e-02 2.446241e-14 5.611921e-15" pol="2.609321e+01 3.312092e-10 -3.244601e-10 3.312092e-10 1.209316e+01 -1.912079e-12 -3.244601e-10 -1.912079e-12 1.209316e+01" pbc="T T T"
O 1.168925e+00 -2.334947e-11 -4.074288e-12 7.244550e-03 2.060613e-13 -1.132926e-13
C 5.962024e-03 -2.334119e-11 -4.410118e-12 -8.251037e-01 -3.950663e-13 -2.850289e-13
O -1.165894e+00 -2.338614e-11 -4.747799e-12 8.179052e-01 2.397559e-13 2.510648e-13
3
Lattice="1.800000e+01 0.000000e+00 0.000000e+00 0.000000e+00 1.800000e+01 0.000000e+00 0.000000e+00 0.000000e+00 1.800000e+01" Properties=species:S:1:pos:R:3:force:R:3 energy=3.907556e-03 dipole="-2.737110e-03 1.655061e-14 7.031059e-15" pol="2.562812e+01 1.632031e-10 3.101990e-11 1.632031e-10 1.196705e+01 7.858769e-13 3.101990e-11 7.858769e-13 1.196705e+01" pbc="T T T"
O 1.159797e+00 -2.361701e-11 -3.844050e-12 7.176367e-01 1.818246e-13 1.516384e-13
C 2.302374e-03 -2.363989e-11 -4.142137e-12 1.175299e-01 -2.430855e-13 -6.494978e-14
O -1.154020e+00 -2.369722e-11 -4.452912e-12 -8.351739e-01 1.814855e-13 -1.885879e-13
3
Lattice="1.800000e+01 0.000000e+00 0.000000e+00 0.000000e+00 1.800000e+01 0.000000e+00 0.000000e+00 0.000000e+00 1.800000e+01" Properties=species:S:1:pos:R:3:force:R:3 energy=2.661608e-03 dipole="-2.339083e-02 1.048218e-14 5.834983e-15" pol="2.576574e+01 3.013313e-10 2.893019e-10 3.013313e-10 1.200521e+01 2.362260e-12 2.893019e-10 2.362260e-12 1.200521e+01" pbc="T T T"
O 1.164106e+00 -2.383950e-11 -3.642085e-12 -6.683966e-02 1.266648e-13 2.489343e-14
C -9.260724e-04 -2.390556e-11 -3.894555e-12 9.856581e-01 -9.290141e-14 1.249155e-13
O -1.155904e+00 -2.399596e-11 -4.161019e-12 -9.188826e-01 5.870743e-14 -1.379447e-13
3
Lattice="1.800000e+01 0.000000e+00 0.000000e+00 0.000000e+00 1.800000e+01 0.000000e+00 0.000000e+00 0.000000e+00 1.800000e+01" Properties=species:S:1:pos:R:3:force:R:3 energy=7.387594e-03 dipole="3.009354e-02 -5.468335e-15 9.903885e-15" pol="2.622379e+01 -2.718236e-10 -8.372403e-10 -2.718236e-10 1.212914e+01 4.113066e-14 -8.372403e-10 4.113066e-14 1.212914e+01" pbc="T T T"
O 1.171240e+00 -2.405027e-11 -3.419576e-12 -1.149848e-01 -1.579148e-14 -3.583007e-15
C 7.490117e-03 -2.420718e-11 -3.615580e-12 -1.189243e+00 -4.338377e-14 -2.664610e-13
O -1.169355e+00 -2.435063e-11 -3.823330e-12 1.304278e+00 6.956861e-14 2.314369e-13
3
Lattice="1.800000e+01 0.000000e+00 0.000000e+00 0.000000e+00 1.800000e+01 0.000000e+00 0.000000e+00 0.000000e+00 1.800000e+01" Properties=species:S:1:pos:R:3:force:R:3 energy=4.194717e-03 dipole="2.432737e-02 1.951076e-15 1.834442e-15" pol="2.570727e+01 -7.822472e-11 8.361358e-11 -7.822472e-11 1.198944e+01 -1.970183e-12 8.361358e-11 -1.970183e-12 1.198944e+01" pbc="T T T"
O 1.159978e+00 -1.441805e-15 -9.963913e-16 1.097214e+00 -3.817091e-14 1.561226e-14
C 6.523954e-03 -1.963617e-15 1.517526e-15 -1.033624e+00 3.833113e-14 8.866799e-16
O -1.157370e+00 -1.745681e-15 3.080841e-15 -6.352490e-02 5.924144e-14 8.039206e-14
3
Lattice="1.800000e+01 0.000000e+00 0.000000e+00 0.000000e+00 1.800000e+01 0.000000e+00 0.000000e+00 0.000000e+00 1.800000e+01" Properties=species:S:1:pos:R:3:force:R:3 energy=5.336062e-03 dipole="-2.793020e-02 3.168496e-16 -2.662345e-15" pol="2.617169e+01 -2.948736e-10 3.677533e-11 -2.948736e-10 1.211493e+01 2.858490e-12 3.677533e-11 2.858490e-12 1.211493e+01" pbc="T T T"
O 1.173527e+00 1.661934e-15 -1.427837e-14 -1.143372e+00 3.369421e-14 -2.897572e-14
C -1.683248e-03 3.180195e-15 -4.365584e-15 1.111764e+00 -4.469849e-14 2.750721e-14
O -1.164757e+00 -9.211396e-16 7.246795e-15 3.155487e-02 -2.836329e-15 1.750962e-14
3
Lattice="1.800000e+01 0.000000e+00 0.000000e+00 0.000000e+00 1.800000e+01 0.000000e+00 0.000000e+00 0.000000e+00 1.800000e+01" Properties=species:S:1:pos:R:3:force:R:3 energy=3.300039e-03 dipole="-1.290992e-02 -6.207868e-15 3.245287e-15" pol="2.619147e+01 4.598559e-10 2.339548e-10 4.598559e-10 1.211888e+01 -2.356733e-13 2.339548e-10 -2.356733e-13 1.211888e+01" pbc="T T T"
O 1.173129e+00 1.233151e-14 -4.261493e-14 -9.065804e-01 -2.417457e-14 1.767411e-14
C 6.876939e-04 -9.977137e-16 -1.159721e-14 5.121685e-01 1.364454e-14 -8.563197e-14
O -1.166140e+00 -8.706573e-15 1.518576e-14 3.943877e-01 -5.100860e-14 -8.469229e-15
3
Lattice="1.800000e+01 0.000000e+00 0.000000e+00 0.000000e+00 1.800000e+01 0.000000e+00 0.000000e+00 0.000000e+00 1.800000e+01" Properties=species:S:1:pos:R:3:force:R:3 energy=3.590507e-04 dipole="-7.286403e-03 2.002120e-15 -2.747810e-15" pol="2.608755e+01 -2.779349e-10 -2.211042e-10 -2.779349e-10 1.209090e+01 -6.129052e-13 -2.211042e-10 -6.129052e-13 1.209090e+01" pbc="T T T"
O 1.170471e+00 1.690166e-14 -5.992306e-14 -5.472000e-01 6.345037e-14 3.950907e-14
C 1.579934e-03 4.406899e-15 -2.207472e-14 2.933035e-01 -3.719167e-14 5.671031e-14
O -1.164151e+00 -1.356993e-14 2.061323e-14 2.538797e-01 -7.166246e-14 2.761170e-14
3
Lattice="1.800000e+01 0.000000e+00 0.000000e+00 0.000000e+00 1.800000e+01 0.000000e+00 0.000000e+00 0.000000e+00 1.800000e+01" Properties=species:S:1:pos:R:3:force:R:3 energy=-3.625643e-04 dipole="-1.012008e-02 -1.145245e-14 -1.491564e-15" pol="2.602281e+01 1.109251e-10 -2.638174e-10 1.109251e-10 1.207367e+01 2.946904e-12 -2.638174e-10 2.946904e-12 1.207367e+01" pbc="T T T"
O 1.169177e+00 4.296502e-14 -1.413324e-13 -4.449283e-01 -1.110656e-14 6.375921e-14
C 1.136619e-03 6.187235e-15 -4.179041e-14 4.111302e-01 5.430482e-14 -7.661839e-14
O -1.162523e+00 -2.559821e-14 5.749884e-14 3.377274e-02 -6.811358e-14 1.184423e-13
3
Lattice="1.800000e+01 0.000000e+00 0.000000e+00 0.000000e+00 1.800000e+01 0.000000e+00 0.000000e+00 0.000000e+00 1.800000e+01" Properties=species:S:1:pos:R:3:force:R:3 energy=-8.257496e-04 dipole="4.800878e-03 3.744588e-16 7.303981e-16" pol="2.584199e+01 8.970266e-11 1.930401e-10 8.970266e-11 1.202492e+01 -9.098778e-13 1.930401e-10 -9.098778e-13 1.202492e+01" pbc="T T T"
O 1.164216e+00 5.246934e-14 -1.799008e-13 3.158563e-01 5.688127e-14 -9.235088e-14
C 3.480032e-03 1.091810e-14 -4.882991e-14 -2.000495e-01 -8.201537e-14 7.426978e-15
O -1.159324e+00 -3.469279e-14 8.288436e-14 -1.157932e-01 4.765193e-14 6.112950e-14
3
Lattice="1.800000e+01 0.000000e+00 0.000000e+00 0.000000e+00 1.800000e+01 0.000000e+00 0.000000e+00 0.000000e+00 1.800000e+01" Properties=species:S:1:pos:R:3:force:R:3 energy=8.245216e-03 dipole="3.262028e-02 1.954915e-15 -9.649938e-15" pol="2.564589e+01 -2.800398e-12 -3.160148e-10 -2.800398e-12 1.197351e+01 -2.161367e-13 -3.160148e-10 -2.161367e-13 1.197351e+01" pbc="T T T"
O 1.158069e+00 1.502120e-13 -3.885893e-13 1.453782e+00 1.376592e-13 -3.571472e-13
C 7.809168e-03 2.786583e-14 -8.651510e-14 -1.398475e+00 -1.407798e-13 3.636024e-13
O -1.156426e+00 -9.747731e-14 2.180980e-13 -5.522594e-02 -1.169887e-13 -4.617996e-14
3
Lattice="1.800000e+01 0.000000e+00 0.000000e+00 0.000000e+00 1.800000e+01 0.000000e+00 0.000000e+00 0.000000e+00 1.800000e+01" Properties=species:S:1:pos:R:3:force:R:3 energy=5.653663e-03 dipole="3.921255e-02 4.391647e-15 -1.285629e-14" pol="2.599093e+01 4.646991e-11 -4.187138e-10 4.646991e-11 1.206785e+01 6.471292e-13 -4.187138e-10 6.471292e-13 1.206785e+01" pbc="T T T"
O 1.165439e+00 2.457701e-13 -4.856041e-13 6.765554e-01 1.293925e-13 -2.267086e-13
C 8.891676e-03 4.049619e-14 -1.056011e-13 -1.602099e+00 -2.317871e-13 5.061195e-13
O -1.164612e+00 -1.649412e-13 2.794386e-13 9.256363e-01 1.270631e-13 -3.046870e-13
3
Lattice="1.800000e+01 0.000000e+00 0.000000e+00 0.000000e+00 1.800000e+01 0.000000e+00 0.000000e+00 0.000000e+00 1.800000e+01" Properties=species:S:1:pos:R:3:force:R:3 energy=4.366498e-03 dipole="-1.571674e-02 5.528580e-16 4.673726e-15" pol="2.621542e+01 3.461873e-10 3.916145e-10 3.461873e-10 1.212544e+01 -2.475196e-12 3.916145e-10 -2.475196e-12 1.212544e+01" pbc="T T T"
O 1.173826e+00 3.125816e-13 -5.354802e-13 -1.016791e+00 -1.882228e-13 3.441438e-13
C 2.416782e-04 5.524588e-14 -1.170288e-13 6.214651e-01 9.317577e-14 -2.109216e-13
O -1.166504e+00 -2.083660e-13 3.016822e-13 3.952977e-01 1.014918e-13 -1.894357e-13
3
Lattice="1.800000e+01 0.000000e+00 0.000000e+00 0.000000e+00 1.800000e+01 0.000000e+00 0.000000e+00 0.000000e+00 1.800000e+01" Properties=species:S:1:pos:R:3:force:R:3 energy=1.604342e-03 dipole="-2.042771e-02 6.500065e-16 5.067023e-15" pol="2.579213e+01 -2.309410e-10 -2.039352e-10 -2.309410e-10 1.201213e+01 3.968778e-13 -2.039352e-10 3.968778e-13 1.201213e+01" pbc="T T T"
O 1.164540e+00 3.969738e-13 -5.860320e-13 -7.456098e-02 5.702994e-15 2.623315e-14
C -4.664556e-04 7.437261e-14 -1.366374e-13 8.575196e-01 2.283555e-13 -3.434907e-13
O -1.156686e+00 -2.541770e-13 3.152478e-13 -7.830154e-01 -1.878108e-13 3.153620e-13
3
Lattice="1.800000e+01 0.000000e+00 0.000000e+00 0.000000e+00 1.800000e+01 0.000000e+00 0.000000e+00 0.000000e+00 1.800000e+01" Properties=species:S:1:pos:R:3:force:R:3 energy=7.401713e-03 dipole="2.934030e-02 5.461463e-15 -1.341810e-14" pol="2.564271e+01 3.971442e-10 3.963330e-10 3.971442e-10 1.197233e+01 -1.112173e-12 3.963330e-10 -1.112173e-12 1.197233e+01" pbc="T T T"
O 1.158198e+00 6.234447e-13 -8.473965e-13 1.387229e+00 4.139643e-13 -6.183593e-13
C 7.294929e-03 1.781222e-13 -2.893280e-13 -1.258234e+00 -3.736860e-13 5.687229e-13
O -1.156177e+00 -2.606155e-13 2.756152e-13 -1.289217e-01 -1.092701e-13 1.119492e-13
3
Lattice="1.800000e+01 0.000000e+00 0.000000e+00 0.000000e+00 1.800000e+01 0.000000e+00 0.000000e+00 0.000000e+00 1.800000e+01" Properties=species:S:1:pos:R:3:force:R:3 energy=4.434001e-03 dipole="-1.736112e-02 -1.424055e-14 7.004650e-15" pol="2.621032e+01 -1.747297e-10 4.659488e-10 -1.747297e-10 1.212420e+01 1.934874e-12 4.659488e-10 1.934874e-12 1.212420e+01" pbc="T T T"
O 1.173799e+00 6.945299e-13 -1.184909e-12 -1.035963e+00 -4.906465e-13 4.905145e-13
C -2.332484e-05 3.154553e-13 -5.220536e-13 6.870155e-01 4.268819e-13 -3.366702e-13
O -1.166293e+00 -4.194147e-14 1.442197e-13 3.489170e-01 3.889738e-14 -3.235556e-13
3
Lattice="1.800000e+01 0.000000e+00 0.000000e+00 0.000000e+00 1.800000e+01 0.000000e+00 0.000000e+00 0.000000e+00 1.800000e+01" Properties=species:S:1:pos:R:3:force:R:3 energy=3.255084e-03 dipole="1.990350e-02 1.371425e-14 -9.548144e-15" pol="2.570855e+01 7.182426e-10 7.218496e-12 7.182426e-10 1.198947e+01 -1.835575e-12 7.218496e-12 -1.835575e-12 1.198947e+01" pbc="T T T"
O 1.160268e+00 6.495072e-13 -1.434644e-12 9.949679e-01 2.116274e-13 -5.276356e-13
C 5.822928e-03 5.431662e-13 -8.243006e-13 -8.453853e-01 -2.391577e-13 4.603201e-13
O -1.157164e+00 4.088778e-13 -2.061903e-13 -1.495284e-01 1.034646e-13 5.528013e-14
3
Lattice="1.800000e+01 0.000000e+00 0.000000e+00 0.000000e+00 1.800000e+01 0.000000e+00 0.000000e+00 0.000000e+00 1.800000e+01" Properties=species:S:1:pos:R:3:force:R:3 energy=1.024166e-02 dipole="4.024139e-02 9.800837e-15 -2.090704e-14" pol="2.566401e+01 5.604730e-10 1.253895e-10 5.604730e-10 1.197931e+01 -4.321749e-13 1.253895e-10 -4.321749e-13 1.197931e+01" pbc="T T T"
O 1.157988e+00 6.697393e-13 -1.483887e-12 1.580491e+00 1.264870e-13 -7.406550e-13
C 8.987247e-03 6.057930e-13 -9.108530e-13 -1.721511e+00 -1.821479e-13 8.149899e-13
O -1.157262e+00 5.306968e-13 -3.303235e-13 1.411177e-01 3.955861e-14 -6.378557e-14
3
Lattice="1.800000e+01 0.000000e+00 0.000000e+00 0.000000e+00 1.800000e+01 0.000000e+00 0.000000e+00 0.000000e+00 1.800000e+01" Properties=species:S:1:pos:R:3:force:R:3 energy=3.157185e-03 dipole="3.172786e-02 1.509256e-14 -1.283939e-14" pol="2.595360e+01 2.379266e-10 9.241726e-10 2.379266e-10 1.205678e+01 1.868348e-13 9.241726e-10 1.868348e-13 1.205678e+01" pbc="T T T"
O 1.165066e+00 7.433915e-13 -1.621870e-12 6.073662e-01 1.399110e-13 -2.571235e-13
C 7.695735e-03 7.775799e-13 -1.145050e-12 -1.302565e+00 -2.378544e-13 5.654187e-13
O -1.163381e+00 7.785098e-13 -6.552390e-13 6.952792e-01 7.547193e-14 -2.893606e-13
3
Lattice="1.800000e+01 0.000000e+00 0.000000e+00 0.000000e+00 1.800000e+01 0.000000e+00 0.000000e+00 0.000000e+00 1.800000e+01" Properties=species:S:1:pos:R:3:force:R:3 energy=3.996478e-03 dipole="-7.730296e-03 7.765833e-15 8.951602e-16" pol="2.563256e+01 -3.397764e-10 -1.240713e-10 -3.397764e-10 1.196833e+01 -4.477084e-12 -1.240713e-10 -4.477084e-12 1.196833e+01" pbc="T T T"
O 1.160169e+00 7.855451e-13 -1.755435e-12 5.998766e-01 3.687272e-15 -2.501862e-13
C 1.506943e-03 9.075584e-13 -1.384444e-12 3.317784e-01 -1.215915e-13 -1.176210e-13
O -1.153844e+00 1.021013e-12 -1.010846e-12 -9.316756e-01 1.511960e-13 2.976163e-13
3
Lattice="1.800000e+01 0.000000e+00 0.000000e+00 0.000000e+00 1.800000e+01 0.000000e+00 0.000000e+00 0.000000e+00 1.800000e+01" Properties=species:S:1:pos:R:3:force:R:3 energy=1.053917e-04 dipole="-1.790961e-02 -9.537172e-15 4.371370e-15" pol="2.591071e+01 -3.336940e-10 2.288867e-10 -3.336940e-10 1.204396e+01 -1.853065e-13 2.288867e-10 -1.853065e-13 1.204396e+01" pbc="T T T"
O 1.167065e+00 7.549403e-13 -1.902776e-12 -3.220957e-01 -5.713320e-14 4.820115e-14
C -1.032842e-04 1.070578e-12 -1.747411e-12 7.393091e-01 2.298565e-14 -1.568857e-13
O -1.159543e+00 1.418599e-12 -1.598635e-12 -4.172620e-01 -6.172914e-14 1.462189e-13
3
Lattice="1.800000e+01 0.000000e+00 0.000000e+00 0.000000e+00 1.800000e+01 0.000000e+00 0.000000e+00 0.000000e+00 1.800000e+01" Properties=species:S:1:pos:R:3:force:R:3 energy=1.448538e-03 dipole="1.720287e-02 1.514432e-14 -9.021737e-15" pol="2.609004e+01 8.314818e-11 5.837825e-10 8.314818e-11 1.209206e+01 -3.633339e-12 5.837825e-10 -3.633339e-12 1.209206e+01" pbc="T T T"
O 1.169035e+00 7.418425e-13 -1.950306e-12 -5.442222e-02 1.719272e-13 -8.583597e-15
C 5.416179e-03 1.136105e-12 -1.857795e-12 -6.923980e-01 -4.091593e-14 7.380091e-14
O -1.165662e+00 1.500307e-12 -1.758665e-12 7.468593e-01 -9.379098e-14 -8.405158e-14
3
Lattice="1.800000e+01 0.000000e+00 0.000000e+00 0.000000e+00 1.800000e+01 0.000000e+00 0.000000e+00 0.000000e+00 1.800000e+01" Properties=species:S:1:pos:R:3:force:R:3 energy=2.310705e-03 dipole="3.871936e-03 1.665311e-14 -3.992612e-15" pol="2.617923e+01 -3.370225e-10 2.926328e-10 -3.370225e-10 1.211531e+01 2.012850e-12 2.926328e-10 2.012850e-12 1.211531e+01" pbc="T T T"
O 1.171846e+00 7.547522e-13 -2.028074e-12 -5.478048e-01 3.589404e-13 -3.398753e-14
C 3.314688e-03 1.189519e-12 -1.988476e-12 -1.538402e-01 -2.928120e-13 9.674924e-14
O -1.166899e+00 1.585663e-12 -1.941502e-12 7.016526e-01 -9.004487e-14 -3.565144e-14
3
Lattice="1.800000e+01 0.000000e+00 0.000000e+00 0.000000e+00 1.800000e+01 0.000000e+00 0.000000e+00 0.000000e+00 1.800000e+01" Properties=species:S:1:pos:R:3:force:R:3 energy=4.939927e-03 dipole="1.468389e-02 -2.513431e-14 5.069468e-15" pol="2.623687e+01 -7.530089e-10 -2.245806e-10 -7.530089e-10 1.213109e+01 1.401831e-13 -2.245806e-10 1.401831e-13 1.213109e+01" pbc="T T T"
O 1.172472e+00 9.192005e-13 -2.451068e-12 -4.687251e-01 1.086169e-14 -3.021174e-14
C 5.021274e-03 1.314338e-12 -2.546525e-12 -5.788520e-01 4.669781e-13 -1.130668e-13
O -1.168822e+00 1.754945e-12 -2.648414e-12 1.047602e+00 -5.783670e-13 1.412478e-13
3
Lattice="1.800000e+01 0.000000e+00 0.000000e+00 0.000000e+00 1.800000e+01 0.000000e+00 0.000000e+00 0.000000e+00 1.800000e+01" Properties=species:S:1:pos:R:3:force:R:3 energy=3.243638e-03 dipole="-1.694401e-02 1.655694e-14 -6.645201e-15" pol="2.617138e+01 -1.121370e-09 2.430041e-10 -1.121370e-09 1.211378e+01 1.757716e-13 2.430041e-10 1.757716e-13 1.211378e+01" pbc="T T T"
O 1.172867e+00 1.391801e-12 -2.827596e-12 -9.361060e-01 1.963638e-13 -4.311567e-13
C 1.034600e-05 1.497313e-12 -3.323652e-12 6.741953e-01 -3.231090e-13 3.008673e-13
O -1.165483e+00 1.566273e-12 -3.816715e-12 2.618776e-01 1.445852e-13 1.179811e-13
3
Lattice="1.800000e+01 0.000000e+00 0.000000e+00 0.000000e+00 1.800000e+01 0.000000e+00 0.000000e+00 0.000000e+00 1.800000e+01" Properties=species:S:1:pos:R:3:force:R:3 energy=1.388465e-03 dipole="-1.974514e-02 -1.234192e-14 -8.228387e-15" pol="2.579795e+01 4.183030e-10 5.157007e-10 4.183030e-10 1.201366e+01 3.208831e-12 5.157007e-10 3.208831e-12 1.201366e+01" pbc="T T T"
O 1.164592e+00 1.427160e-12 -2.869658e-12 -7.566485e-02 -6.690566e-14 -6.943462e-15
C -4.017987e-04 1.482320e-12 -3.398572e-12 8.281691e-01 9.060627e-14 3.447267e-13
O -1.156901e+00 1.559629e-12 -3.923894e-12 -7.525592e-01 2.453544e-14 -3.592220e-13
3
Lattice="1.800000e+01 0.000000e+00 0.000000e+00 0.000000e+00 1.800000e+01 0.000000e+00 0.000000e+00 0.000000e+00 1.800000e+01" Properties=species:S:1:pos:R:3:force:R:3 energy=1.810835e-03 dipole="-1.336806e-02 -1.094193e-14 -7.896429e-15" pol="2.572628e+01 -1.414576e-11 -2.662970e-10 -1.414576e-11 1.199392e+01 9.041495e-14 -2.662970e-10 9.041495e-14 1.199392e+01" pbc="T T T"
O 1.162600e+00 1.444368e-12 -2.917011e-12 2.371379e-01 -1.048352e-13 1.998923e-13
C 5.966886e-04 1.487286e-12 -3.511903e-12 5.662864e-01 1.089258e-13 3.607761e-13
O -1.155667e+00 1.548724e-12 -4.103590e-12 -8.034617e-01 -2.229111e-16 -5.304867e-13
3
Lattice="1.800000e+01 0.000000e+00 0.000000e+00 0.000000e+00 1.800000e+01 0.000000e+00 0.000000e+00 0.000000e+00 1.800000e+01" Properties=species:S:1:pos:R:3:force:R:3 energy=3.958034e-03 dipole="-1.855767e-02 -1.912130e-14 -8.227294e-15" pol="2.618836e+01 -1.892565e-10 4.151266e-11 -1.892565e-10 1.211844e+01 -3.345094e-13 4.151266e-11 -3.345094e-13 1.211844e+01" pbc="T T T"
O 1.173334e+00 1.450354e-12 -2.941201e-12 -1.006925e+00 -7.694632e-14 -6.373430e-13
C -2.511848e-04 1.486116e-12 -3.599042e-12 7.366726e-01 2.469939e-13 4.541055e-13
O -1.165768e+00 1.559484e-12 -4.254616e-12 2.702174e-01 -1.214754e-13 8.624657e-14
3
Lattice="1.800000e+01 0.000000e+00 0.000000e+00 0.000000e+00 1.800000e+01 0.000000e+00 0.000000e+00 0.000000e+00 1.800000e+01" Properties=species:S:1:pos:R:3:force:R:3 energy=3.559407e-03 dipole="-2.165283e-03 -1.272283e-14 3.622421e-15" pol="2.622184e+01 1.584370e-10 3.094648e-10 1.584370e-10 1.212665e+01 1.159732e-13 3.094648e-10 1.159732e-13 1.212665e+01" pbc="T T T"
O 1.173132e+00 1.349371e-12 -3.090031e-12 -7.702067e-01 6.512183e-14 -5.045342e-13
C 2.332862e-03 1.482084e-12 -3.844474e-12 8.550023e-02 2.190223e-13 6.246966e-14
O -1.167524e+00 1.645161e-12 -4.601702e-12 6.847027e-01 -1.937663e-13 4.973921e-13
3
Lattice="1.800000e+01 0.000000e+00 0.000000e+00 0.000000e+00 1.800000e+01 0.000000e+00 0.000000e+00 0.000000e+00 1.800000e+01" Properties=species:S:1:pos:R:3:force:R:3 energy=1.288417e-03 dipole="-7.058803e-03 6.923913e-15 -1.375536e-15" pol="2.572323e+01 4.444526e-11 3.105015e-10 4.444526e-11 1.199289e+01 -2.595176e-12 3.105015e-10 -2.595176e-12 1.199289e+01" pbc="T T T"
O 1.162152e+00 9.989879e-13 -3.461113e-12 3.756227e-01 -8.586376e-14 2.257396e-13
C 1.564441e-03 1.403072e-12 -4.080034e-12 2.991121e-01 -2.315876e-13 1.567889e-13
O -1.155992e+00 1.792815e-12 -4.703783e-12 -6.747547e-01 2.527553e-13 -3.330970e-13
3
Lattice="1.800000e+01 0.000000e+00 0.000000e+00 0.000000e+00 1.800000e+01 0.000000e+00 0.000000e+00 0.000000e+00 1.800000e+01" Properties=species:S:1:pos:R:3:force:R:3 energy=1.033219e-03 dipole="-1.661537e-02 -4.124254e-15 -8.006740e-15" pol="2.607070e+01 3.509006e-10 6.367131e-10 3.509006e-10 1.208684e+01 -9.947195e-13 6.367131e-10 -9.947195e-13 1.208684e+01" pbc="T T T"
O 1.170554e+00 7.208409e-13 -3.804142e-12 -6.888649e-01 2.347115e-13 -2.281858e-13
C 3.868861e-05 1.206572e-12 -4.235649e-12 6.705667e-01 -1.547523e-13 2.681520e-13
O -1.163276e+00 1.708937e-12 -4.665206e-12 1.825929e-02 7.066930e-14 -1.168920e-13
3
Lattice="1.800000e+01 0.000000e+00 0.000000e+00 0.000000e+00 1.800000e+01 0.000000e+00 0.000000e+00 0.000000e+00 1.800000e+01" Properties=species:S:1:pos:R:3:force:R:3 energy=5.061453e-03 dipole="-2.470579e-02 1.288871e-14 1.797920e-16" pol="2.567932e+01 -1.738230e-10 1.265063e-10 -1.738230e-10 1.198189e+01 -1.009894e-12 1.265063e-10 -1.009894e-12 1.198189e+01" pbc="T T T"
O 1.162120e+00 -2.141631e-14 -4.337781e-12 1.277208e-01 -8.396841e-14 7.528279e-15
C -1.214022e-03 6.718120e-13 -4.342396e-12 1.053852e+00 -6.241999e-13 -8.266943e-15
O -1.153954e+00 1.362458e-12 -4.344130e-12 -1.181638e+00 6.559640e-13 -2.763193e-14
3
Lattice="1.800000e+01 0.000000e+00 0.000000e+00 0.000000e+00 1.800000e+01 0.000000e+00 0.000000e+00 0.000000e+00 1.800000e+01" Properties=species:S:1:pos:R:3:force:R:3 energy=5.242469e-03 dipole="-1.750975e-02 2.077917e-15 3.375652e-15" pol="2.623461e+01 -7.926429e-10 -1.082250e-10 -7.926429e-10 1.213069e+01 -1.233211e-12 -1.082250e-10 -1.233211e-12 1.213069e+01" pbc="T T T"
O 1.174255e+00 -4.039364e-13 -4.580964e-12 -1.095772e+00 5.145223e-13 1.640694e-13
C -1.452486e-04 2.611150e-13 -4.358464e-12 6.905286e-01 -2.365118e-13 -1.873689e-13
O -1.166924e+00 9.462108e-13 -4.137477e-12 4.052147e-01 -3.288895e-13 -6.150140e-14
3
Lattice="1.800000e+01 0.000000e+00 0.000000e+00 0.000000e+00 1.800000e+01 0.000000e+00 0.000000e+00 0.000000e+00 1.800000e+01" Properties=species:S:1:pos:R:3:force:R:3 energy=4.142550e-04 dipole="1.924085e-02 -1.198309e-14 -4.512745e-15" pol="2.597249e+01 4.163593e-10 -2.435379e-10 4.163593e-10 1.206067e+01 3.484381e-12 -2.435379e-10 3.484381e-12 1.206067e+01" pbc="T T T"
O 1.166184e+00 -4.595615e-13 -4.650404e-12 2.866324e-01 -9.563782e-14 -1.156765e-13
C 5.646856e-03 1.894753e-13 -4.375480e-12 -7.874123e-01 3.799219e-13 2.208864e-13
O -1.163207e+00 8.367391e-13 -4.093256e-12 5.008299e-01 -2.039661e-13 -1.336521e-13
3
Lattice="1.800000e+01 0.000000e+00 0.000000e+00 0.000000e+00 1.800000e+01 0.000000e+00 0.000000e+00 0.000000e+00 1.800000e+01" Properties=species:S:1:pos:R:3:force:R:3 energy=5.368215e-03 dipole="-2.907509e-02 1.300711e-14 5.930423e-15" pol="2.570732e+01 -1.767232e-10 -5.073681e-10 -1.767232e-10 1.198986e+01 -8.174566e-13 -5.073681e-10 -8.174566e-13 1.198986e+01" pbc="T T T"
O 1.162978e+00 -6.338067e-13 -4.875143e-12 -3.142559e-02 2.367452e-14 1.785935e-14
C -1.919404e-03 -8.994328e-14 -4.436542e-12 1.235572e+00 -5.340156e-13 -4.368168e-13
O -1.154339e+00 4.565543e-13 -3.999619e-12 -1.204223e+00 5.814301e-13 3.856279e-13
3
Lattice="1.800000e+01 0.000000e+00 0.000000e+00 0.000000e+00 1.800000e+01 0.000000e+00 0.000000e+00 0.000000e+00 1.800000e+01" Properties=species:S:1:pos:R:3:force:R:3 energy=-8.447425e-06 dipole="1.688845e-02 -5.297153e-15 -1.323481e-14" pol="2.589535e+01 -1.868034e-10 -5.001962e-10 -1.868034e-10 1.203976e+01 -6.066944e-13 -5.001962e-10 -6.066944e-13 1.203976e+01" pbc="T T T"
O 1.164579e+00 -7.278849e-13 -4.967557e-12 4.350770e-01 -1.274461e-13 -1.921805e-13
C 5.261343e-03 -2.239266e-13 -4.473713e-12 -6.986443e-01 2.464686e-13 2.629011e-13
O -1.161341e+00 2.775140e-13 -3.972745e-12 2.636136e-01 -7.706382e-14 -8.043121e-14
3
Lattice="1.800000e+01 0.000000e+00 0.000000e+00 0.000000e+00 1.800000e+01 0.000000e+00 0.000000e+00 0.000000e+00 1.800000e+01" Properties=species:S:1:pos:R:3:force:R:3 energy=6.009605e-03 dipole="3.219277e-02 -2.992461e-14 -1.630512e-14" pol="2.615553e+01 3.807504e-10 3.325565e-11 3.807504e-10 1.211115e+01 -5.361269e-12 3.325565e-11 -5.361269e-12 1.211115e+01" pbc="T T T"
O 1.169460e+00 -8.724341e-13 -5.128261e-12 1.003632e-01 -7.729523e-14 -3.110732e-14
C 7.692289e-03 -4.539438e-13 -4.547549e-12 -1.284641e+00 6.846724e-13 5.919221e-13
O -1.168059e+00 2.006799e-15 -3.960952e-12 1.184340e+00 -5.413051e-13 -5.291396e-13
3
Lattice="1.800000e+01 0.000000e+00 0.000000e+00 0.000000e+00 1.800000e+01 0.000000e+00 0.000000e+00 0.000000e+00 1.800000e+01" Properties=species:S:1:pos:R:3:force:R:3 energy=1.083532e-02 dipole="3.959493e-02 -1.255302e-14 -2.484489e-14" pol="2.563930e+01 -8.164269e-11 -1.198964e-10 -8.164269e-11 1.197249e+01 -9.216821e-13 -1.198964e-10 -9.216821e-13 1.197249e+01" pbc="T T T"
O 1.157351e+00 -1.103336e-12 -5.459166e-12 1.634123e+00 -3.807821e-13 -1.015113e-12
C 8.765085e-03 -8.790842e-13 -4.756150e-12 -1.699681e+00 3.461260e-13 1.036497e-12
O -1.156781e+00 -6.456227e-13 -4.043029e-12 6.565163e-02 -2.759573e-14 3.081284e-14
3
Lattice="1.800000e+01 0.000000e+00 0.000000e+00 0.000000e+00 1.800000e+01 0.000000e+00 0.000000e+00 0.000000e+00 1.800000e+01" Properties=species:S:1:pos:R:3:force:R:3 energy=6.870625e-04 dipole="-1.375719e-02 9.275757e-15 2.668485e-15" pol="2.578455e+01 3.027798e-11 1.835481e-10 3.027798e-11 1.200970e+01 -1.901169e-12 1.835481e-10 -1.901169e-12 1.200970e+01" pbc="T T T"
O 1.163857e+00 -1.266214e-12 -5.636450e-12 7.929653e-02 3.929529e-14 -3.487907e-14
C 4.423417e-04 -1.146261e-12 -4.901895e-12 5.780139e-01 -2.337252e-13 -3.093237e-13
O -1.157056e+00 -1.050032e-12 -4.163518e-12 -6.573493e-01 2.195812e-13 4.444975e-13
3
Lattice="1.800000e+01 0.000000e+00 0.000000e+00 0.000000e+00 1.800000e+01 0.000000e+00 0.000000e+00 0.000000e+00 1.800000e+01" Properties=species:S:1:pos:R:3:force:R:3 energy=3.805726e-03 dipole="1.779625e-02 -1.662036e-14 -9.874527e-15" pol="2.618712e+01 -2.678381e-10 -1.665374e-11 -2.678381e-10 1.211805e+01 -1.068325e-12 -1.665374e-11 -1.068325e-12 1.211805e+01" pbc="T T T"
O 1.171061e+00 -1.331977e-12 -5.700693e-12 -2.829615e-01 -1.546622e-13 2.403613e-13
C 5.403954e-03 -1.276956e-12 -4.964179e-12 -7.065534e-01 3.745858e-13 3.670349e-13
O -1.167990e+00 -1.180350e-12 -4.225889e-12 9.895485e-01 -2.204931e-13 -5.716250e-13
3
Lattice="1.800000e+01 0.000000e+00 0.000000e+00 0.000000e+00 1.800000e+01 0.000000e+00 0.000000e+00 0.000000e+00 1.800000e+01" Properties=species:S:1:pos:R:3:force:R:3 energy=-4.087667e-04 dipole="4.988131e-03 1.377835e-14 -7.252968e-15" pol="2.604668e+01 6.224568e-10 3.559894e-11 6.224568e-10 1.207992e+01 -9.363956e-13 3.559894e-11 -9.363956e-13 1.207992e+01" pbc="T T T"
O 1.168656e+00 -2.395086e-12 -6.222395e-12 -1.994840e-01 6.099973e-15 8.305013e-16
C 3.342623e-03 -2.745725e-12 -6.059830e-12 -2.019403e-01 -1.877427e-13 7.408356e-14
O -1.164131e+00 -3.121239e-12 -5.884825e-12 4.014366e-01 1.962368e-13 -4.421843e-14
3
Lattice="1.800000e+01 0.000000e+00 0.000000e+00 0.000000e+00 1.800000e+01 0.000000e+00 0.000000e+00 0.000000e+00 1.800000e+01" Properties=species:S:1:pos:R:3:force:R:3 energy=4.070093e-03 dipole="1.023041e-02 -6.335396e-15 -9.437525e-15" pol="2.563651e+01 -1.009589e-10 -1.863975e-12 -1.009589e-10 1.196947e+01 2.473781e-12 -1.863975e-12 2.473781e-12 1.196947e+01" pbc="T T T"
O 1.159049e+00 -2.503314e-12 -6.274416e-12 9.757497e-01 2.325142e-13 -1.596137e-13
C 4.146739e-03 -2.894598e-12 -6.196138e-12 -4.388558e-01 -7.497109e-14 7.415544e-14
O -1.155138e+00 -3.276266e-12 -6.105974e-12 -5.368667e-01 -1.610969e-13 -2.682037e-14
3
Lattice="1.800000e+01 0.000000e+00 0.000000e+00 0.000000e+00 1.800000e+01 0.000000e+00 0.000000e+00 0.000000e+00 1.800000e+01" Properties=species:S:1:pos:R:3:force:R:3 energy=6.987879e-03 dipole="-2.992805e-02 7.509613e-15 -3.189235e-15" pol="2.621237e+01 3.790281e-10 -3.832127e-10 3.790281e-10 1.212607e+01 -2.406476e-12 -3.832127e-10 -2.406476e-12 1.212607e+01" pbc="T T T"
O 1.174367e+00 -2.707945e-12 -6.386840e-12 -1.274843e+00 -3.986387e-13 -3.012767e-14
C -2.186297e-03 -3.092715e-12 -6.414355e-12 1.184598e+00 1.861966e-13 4.880112e-14
O -1.165720e+00 -3.503523e-12 -6.435752e-12 9.019332e-02 1.408112e-13 2.938204e-14
3
Lattice="1.800000e+01 0.000000e+00 0.000000e+00 0.000000e+00 1.800000e+01 0.000000e+00 0.000000e+00 0.000000e+00 1.800000e+01" Properties=species:S:1:pos:R:3:force:R:3 energy=3.125767e-04 dipole="-1.833659e-02 -8.881964e-15 6.955744e-15" pol="2.587649e+01 7.599184e-11 2.219334e-10 7.599184e-11 1.203477e+01 -2.852377e-13 2.219334e-10 -2.852377e-13 1.203477e+01" pbc="T T T"
O 1.166150e+00 -2.947098e-12 -6.486526e-12 -2.452450e-01 -1.112777e-13 1.301269e-13
C -3.323155e-04 -3.308000e-12 -6.621786e-12 7.606010e-01 2.456580e-13 -2.876836e-14
O -1.158909e+00 -3.663911e-12 -6.774629e-12 -5.154065e-01 -2.198559e-13 -1.311888e-14
3
Lattice="1.800000e+01 0.000000e+00 0.000000e+00 0.000000e+00 1.800000e+01 0.000000e+00 0.000000e+00 0.000000e+00 1.800000e+01" Properties=species:S:1:pos:R:3:force:R:3 energy=1.777925e-03 dipole="2.086056e-02 -6.029934e-16 -2.039402e-15" pol="2.578648e+01 1.357045e-10 -8.232533e-10 1.357045e-10 1.201064e+01 1.171664e-12 -8.232533e-10 1.171664e-12 1.201064e+01" pbc="T T T"
O 1.161768e+00 -4.142497e-12 -6.825435e-12 8.075543e-01 1.944649e-14 3.802066e-13
C 5.770146e-03 -4.239834e-12 -7.529718e-12 -8.763985e-01 -4.384351e-14 -2.976791e-13
O -1.159199e+00 -4.334916e-12 -8.210474e-12 6.890204e-02 2.766014e-14 -1.311932e-13
3
Lattice="1.800000e+01 0.000000e+00 0.000000e+00 0.000000e+00 1.800000e+01 0.000000e+00 0.000000e+00 0.000000e+00 1.800000e+01" Properties=species:S:1:pos:R:3:force:R:3 energy=1.252157e-02 dipole="4.486028e-02 1.157296e-14 8.742106e-15" pol="2.623953e+01 3.463913e-10 6.190454e-10 3.463913e-10 1.213581e+01 3.070960e-13 6.190454e-10 3.070960e-13 1.213581e+01" pbc="T T T"
O 1.170377e+00 -4.477883e-12 -7.382834e-12 1.656351e-01 5.179379e-14 9.773010e-15
C 9.581798e-03 -4.824878e-12 -8.080319e-12 -1.770587e+00 -5.762088e-13 -7.128886e-13
O -1.170741e+00 -5.177572e-12 -8.751262e-12 1.605019e+00 4.820511e-13 7.364099e-13
3
Lattice="1.800000e+01 0.000000e+00 0.000000e+00 0.000000e+00 1.800000e+01 0.000000e+00 0.000000e+00 0.000000e+00 1.800000e+01" Properties=species:S:1:pos:R:3:force:R:3 energy=1.081273e-03 dipole="1.817946e-02 9.851970e-15 1.174494e-14" pol="2.580039e+01 -1.282256e-10 7.322005e-10 -1.282256e-10 1.201422e+01 5.696965e-13 7.322005e-10 5.696965e-13 1.201422e+01" pbc="T T T"
O 1.162212e+00 -4.589095e-12 -7.647150e-12 7.118103e-01 1.897495e-13 4.176010e-13
C 5.316624e-03 -4.976727e-12 -8.216889e-12 -7.622029e-01 -2.611301e-13 -4.786483e-13
O -1.159400e+00 -5.367069e-12 -8.803267e-12 5.044341e-02 8.693783e-14 1.202260e-13
3
Lattice="1.800000e+01 0.000000e+00 0.000000e+00 0.000000e+00 1.800000e+01 0.000000e+00 0.000000e+00 0.000000e+00 1.800000e+01" Properties=species:S:1:pos:R:3:force:R:3 energy=-8.848452e-04 dipole="-2.101094e-03 6.050447e-15 2.425898e-14" pol="2.601368e+01 -4.991026e-10 3.472563e-11 -4.991026e-10 1.207105e+01 7.626079e-13 3.472563e-11 7.626079e-13 1.207105e+01" pbc="T T T"
O 1.168246e+00 -4.649979e-12 -7.753452e-12 -2.617611e-01 -7.010824e-14 1.807229e-13
C 2.139629e-03 -5.033172e-12 -8.262561e-12 8.543934e-02 -2.836825e-14 -3.877883e-13
O -1.163057e+00 -5.428103e-12 -8.829146e-12 1.763164e-01 4.684942e-14 2.509376e-13
3
Lattice="1.800000e+01 0.000000e+00 0.000000e+00 0.000000e+00 1.800000e+01 0.000000e+00 0.000000e+00 0.000000e+00 1.800000e+01" Properties=species:S:1:pos:R:3:force:R:3 energy=4.218591e-03 dipole="-2.623825e-02 -9.713292e-15 -3.898045e-14" pol="2.614253e+01 1.606076e-10 9.614512e-11 1.606076e-10 1.210693e+01 -4.039231e-12 9.614512e-11 -4.039231e-12 1.210693e+01" pbc="T T T"
O 1.172518e+00 -4.696168e-12 -7.804521e-12 -1.043426e+00 -3.638534e-13 -6.592785e-13
C -1.674494e-03 -5.083920e-12 -8.344422e-12 1.048634e+00 4.170501e-13 8.702797e-13
O -1.164474e+00 -5.462018e-12 -8.823374e-12 -5.261328e-03 -4.083286e-14 -1.697671e-13
3
Lattice="1.800000e+01 0.000000e+00 0.000000e+00 0.000000e+00 1.800000e+01 0.000000e+00 0.000000e+00 0.000000e+00 1.800000e+01" Properties=species:S:1:pos:R:3:force:R:3 energy=3.846960e-04 dipole="-8.069043e-03 2.872777e-15 1.810640e-14" pol="2.576940e+01 -1.187747e-10 1.734677e-10 -1.187747e-10 1.200540e+01 3.113992e-12 1.734677e-10 3.113992e-12 1.200540e+01" pbc="T T T"
O 1.163053e+00 -4.859366e-12 -7.992075e-12 2.348752e-01 4.059417e-14 2.641751e-13
C 1.198365e-03 -5.185507e-12 -8.396810e-12 3.397107e-01 7.290591e-14 -1.926047e-13
O -1.157188e+00 -5.519298e-12 -8.844977e-12 -5.746088e-01 -1.049349e-13 -5.031656e-14
3
Lattice="1.800000e+01 0.000000e+00 0.000000e+00 0.000000e+00 1.800000e+01 0.000000e+00 0.000000e+00 0.000000e+00 1.800000e+01" Properties=species:S:1:pos:R:3:force:R:3 energy=-1.285687e-03 dipole="2.404333e-03 5.282843e-17 -2.366002e-14" pol="2.590451e+01 3.719512e-10 1.513309e-10 3.719512e-10 1.204174e+01 -6.799696e-13 1.513309e-10 -6.799696e-13 1.204174e+01" pbc="T T T"
O 1.165502e+00 -4.921005e-12 -8.044240e-12 1.052463e-01 -3.355936e-14 -1.793405e-13
C 2.833917e-03 -5.225988e-12 -8.460688e-12 -9.929310e-02 3.411648e-14 3.899795e-13
O -1.160871e+00 -5.525890e-12 -8.826182e-12 -5.946485e-03 -4.338204e-14 -2.148736e-13
3
Lattice="1.800000e+01 0.000000e+00 0.000000e+00 0.000000e+00 1.800000e+01 0.000000e+00 0.000000e+00 0.000000e+00 1.800000e+01" Properties=species:S:1:pos:R:3:force:R:3 energy=4.491001e-03 dipole="1.689166e-02 -5.608132e-15 -2.661807e-14" pol="2.621429e+01 3.808469e-10 -2.011230e-10 3.808469e-10 1.212523e+01 1.327207e-12 -2.011230e-10 1.327207e-12 1.212523e+01" pbc="T T T"
O 1.171574e+00 -5.272498e-12 -8.431309e-12 -3.683269e-01 -1.049790e-13 -3.164611e-13
C 5.112241e-03 -5.403773e-12 -8.604907e-12 -6.680536e-01 6.212358e-14 4.422272e-13
O -1.168699e+00 -5.521688e-12 -8.708767e-12 1.036410e+00 -4.378703e-15 -1.958190e-13
3
Lattice="1.800000e+01 0.000000e+00 0.000000e+00 0.000000e+00 1.800000e+01 0.000000e+00 0.000000e+00 0.000000e+00 1.800000e+01" Properties=species:S:1:pos:R:3:force:R:3 energy=-1.293589e-03 dipole="2.387903e-04 6.344658e-15 2.371897e-14" pol="2.595420e+01 -2.158061e-10 2.808427e-10 -2.158061e-10 1.205509e+01 1.333251e-12 2.808427e-10 1.333251e-12 1.205509e+01" pbc="T T T"
O 1.166723e+00 -5.433866e-12 -8.635742e-12 -6.528525e-02 5.512331e-14 2.320812e-13
C 2.464553e-03 -5.499845e-12 -8.624132e-12 -9.790306e-03 -5.960068e-14 -3.667687e-13
O -1.161897e+00 -5.580109e-12 -8.661305e-12 7.507620e-02 8.853981e-15 1.506919e-13
3
Lattice="1.800000e+01 0.000000e+00 0.000000e+00 0.000000e+00 1.800000e+01 0.000000e+00 0.000000e+00 0.000000e+00 1.800000e+01" Properties=species:S:1:pos:R:3:force:R:3 energy=5.213818e-03 dipole="1.792904e-02 3.742349e-15 -1.959099e-15" pol="2.563286e+01 -5.190580e-10 -7.515523e-10 -5.190580e-10 1.196881e+01 2.176583e-12 -7.515523e-10 2.176583e-12 1.196881e+01" pbc="T T T"
O 1.158371e+00 -5.454842e-12 -8.680140e-12 1.156156e+00 1.064539e-13 -4.413929e-14
C 5.214093e-03 -5.532947e-12 -8.662592e-12 -7.696312e-01 -6.814106e-14 5.796992e-14
O -1.155622e+00 -5.613914e-12 -8.640097e-12 -3.864783e-01 -3.081200e-14 -8.272337e-15
3
Lattice="1.800000e+01 0.000000e+00 0.000000e+00 0.000000e+00 1.800000e+01 0.000000e+00 0.000000e+00 0.000000e+00 1.800000e+01" Properties=species:S:1:pos:R:3:force:R:3 energy=-1.299526e-03 dipole="1.267823e-03 -7.843043e-15 -2.767357e-14" pol="2.594984e+01 4.410350e-12 -1.748570e-10 4.410350e-12 1.205392e+01 3.162089e-13 -1.748570e-10 3.162089e-13 1.205392e+01" pbc="T T T"
O 1.166548e+00 -5.450168e-12 -8.800600e-12 -3.319594e-02 -9.323832e-14 -1.860273e-13
C 2.610206e-03 -5.596174e-12 -8.728408e-12 -5.199987e-02 1.073454e-13 3.882255e-13
O -1.161875e+00 -5.728037e-12 -8.596637e-12 8.519924e-02 -9.790319e-14 -1.782436e-13
3
Lattice="1.800000e+01 0.000000e+00 0.000000e+00 0.000000e+00 1.800000e+01 0.000000e+00 0.000000e+00 0.000000e+00 1.800000e+01" Properties=species:S:1:pos:R:3:force:R:3 energy=6.708018e-03 dipole="3.604665e-02 2.804313e-15 -2.906832e-14" pol="2.573794e+01 -5.842621e-10 4.571625e-10 -5.842621e-10 1.199892e+01 3.118464e-12 4.571625e-10 3.118464e-12 1.199892e+01" pbc="T T T"
O 1.159605e+00 -5.332548e-12 -9.158450e-12 1.279871e+00 2.780492e-13 -4.738351e-13
C 8.021067e-03 -5.678805e-12 -8.842910e-12 -1.525773e+00 -3.876266e-13 7.780212e-13
O -1.159045e+00 -6.016996e-12 -8.477440e-12 2.459941e-01 5.277655e-14 -1.980410e-13
3
Lattice="1.800000e+01 0.000000e+00 0.000000e+00 0.000000e+00 1.800000e+01 0.000000e+00 0.000000e+00 0.000000e+00 1.800000e+01" Properties=species:S:1:pos:R:3:force:R:3 energy=5.485416e-04 dipole="-1.887404e-02 -5.970168e-15 1.994326e-14" pol="2.600209e+01 -2.507314e-11 3.400384e-11 -2.507314e-11 1.206860e+01 1.790565e-12 3.400384e-11 1.790565e-12 1.206860e+01" pbc="T T T"
O 1.168864e+00 -5.310850e-12 -9.314499e-12 -5.660997e-01 -2.138829e-13 2.673700e-13
C -5.823919e-04 -5.697028e-12 -8.882726e-12 7.691778e-01 2.275334e-13 -4.137229e-13
O -1.161864e+00 -6.083481e-12 -8.477545e-12 -2.031258e-01 -7.873649e-14 9.676284e-14
3
Lattice="1.800000e+01 0.000000e+00 0.000000e+00 0.000000e+00 1.800000e+01 0.000000e+00 0.000000e+00 0.000000e+00 1.800000e+01" Properties=species:S:1:pos:R:3:force:R:3 energy=2.316981e-03 dipole="-1.467440e-02 -1.549893e-15 -7.311608e-15" pol="2.614712e+01 1.033899e-09 -1.223895e-11 1.033899e-09 1.210715e+01 -1.280980e-12 -1.223895e-11 -1.280980e-12 1.210715e+01" pbc="T T T"
O 1.171876e+00 -5.363955e-12 -9.566454e-12 -8.349408e-01 -3.091801e-13 3.018385e-13
C 5.274007e-05 -5.722877e-12 -9.076498e-12 5.858515e-01 1.951234e-13 -2.510003e-14
O -1.165397e+00 -6.084600e-12 -8.559373e-12 2.490589e-01 2.694103e-14 -2.094750e-13
3
Lattice="1.800000e+01 0.000000e+00 0.000000e+00 0.000000e+00 1.800000e+01 0.000000e+00 0.000000e+00 0.000000e+00 1.800000e+01" Properties=species:S:1:pos:R:3:force:R:3 energy=8.409368e-03 dipole="4.388348e-02 1.550306e-14 -2.983620e-15" pol="2.579695e+01 -1.362125e-10 6.467394e-10 -1.362125e-10 1.201598e+01 -1.071978e-12 6.467394e-10 -1.071978e-12 1.201598e+01" pbc="T T T"
O 1.160403e+00 -5.479671e-12 -9.776031e-12 1.299994e+00 3.358616e-13 -4.662465e-13
C 9.219750e-03 -5.723773e-12 -9.209140e-12 -1.843028e+00 -4.883786e-13 5.462977e-13
O -1.160840e+00 -5.986240e-12 -8.671915e-12 5.431427e-01 1.829070e-13 2.966054e-15
3
Lattice="1.800000e+01 0.000000e+00 0.000000e+00 0.000000e+00 1.800000e+01 0.000000e+00 0.000000e+00 0.000000e+00 1.800000e+01" Properties=species:S:1:pos:R:3:force:R:3 energy=2.790957e-03 dipole="-3.081507e-03 -9.413889e-15 4.239397e-15" pol="2.619661e+01 -6.727984e-11 -1.737367e-10 -6.727984e-11 1.211993e+01 1.608761e-12 -1.737367e-10 1.608761e-12 1.211993e+01" pbc="T T T"
O 1.172284e+00 -5.610932e-12 -1.019773e-11 -7.278173e-01 -1.010567e-13 4.150463e-13
C 1.851391e-03 -5.713795e-12 -9.533877e-12 1.221287e-01 1.474567e-13 -1.429217e-13
O -1.167241e+00 -5.803233e-12 -8.880684e-12 6.056829e-01 3.262738e-16 -3.319699e-13
3
Lattice="1.800000e+01 0.000000e+00 0.000000e+00 0.000000e+00 1.800000e+01 0.000000e+00 0.000000e+00 0.000000e+00 1.800000e+01" Properties=species:S:1:pos:R:3:force:R:3 energy=5.102810e-03 dipole="-1.950076e-02 -1.062307e-14 -1.333409e-15" pol="2.564410e+01 5.339763e-11 9.616273e-10 5.339763e-11 1.197196e+01 -1.656115e-12 9.616273e-10 -1.656115e-12 1.197196e+01" pbc="T T T"
O 1.160716e+00 -5.601035e-12 -1.043574e-11 3.247948e-01 3.398549e-15 -3.080835e-13
C -7.103544e-04 -5.676253e-12 -9.776280e-12 8.358136e-01 1.713019e-13 -2.759290e-13
O -1.153783e+00 -5.736413e-12 -9.087343e-12 -1.160660e+00 -1.234724e-13 5.217744e-13
3
Lattice="1.800000e+01 0.000000e+00 0.000000e+00 0.000000e+00 1.800000e+01 0.000000e+00 0.000000e+00 0.000000e+00 1.800000e+01" Properties=species:S:1:pos:R:3:force:R:3 energy=6.231046e-03 dipole="-2.299659e-02 -1.317671e-14 -1.470369e-15" pol="2.563161e+01 4.806762e-10 -1.091559e-10 4.806762e-10 1.196880e+01 -1.459774e-12 -1.091559e-10 -1.459774e-12 1.196880e+01" pbc="T T T"
O 1.160598e+00 -5.328319e-12 -1.094494e-11 2.858942e-01 8.921298e-15 -2.783706e-13
C -1.281502e-03 -5.547716e-12 -1.040484e-11 9.874880e-01 2.898881e-13 -3.343533e-13
O -1.153313e+00 -5.749784e-12 -9.839142e-12 -1.273441e+00 -2.776960e-13 5.715493e-13
3
Lattice="1.800000e+01 0.000000e+00 0.000000e+00 0.000000e+00 1.800000e+01 0.000000e+00 0.000000e+00 0.000000e+00 1.800000e+01" Properties=species:S:1:pos:R:3:force:R:3 energy=5.237240e-04 dipole="1.299061e-02 -1.291051e-14 -2.008679e-14" pol="2.606780e+01 2.838700e-10 -1.565160e-10 2.838700e-10 1.208585e+01 1.047842e-12 -1.565160e-10 1.047842e-12 1.208585e+01" pbc="T T T"
O 1.168373e+00 -5.054561e-12 -1.125293e-11 -8.683941e-02 -1.640859e-13 -6.175617e-14
C 4.330371e-03 -5.434016e-12 -1.078959e-11 -5.244419e-01 1.483493e-13 3.953648e-13
O -1.165342e+00 -5.777592e-12 -1.029318e-11 6.113120e-01 2.132344e-14 -3.850077e-13
3
Lattice="1.800000e+01 0.000000e+00 0.000000e+00 0.000000e+00 1.800000e+01 0.000000e+00 0.000000e+00 0.000000e+00 1.800000e+01" Properties=species:S:1:pos:R:3:force:R:3 energy=4.406998e-03 dipole="-1.722927e-02 1.439019e-14 1.041480e-14" pol="2.621006e+01 -7.298763e-10 1.522414e-11 -7.298763e-10 1.212413e+01 2.560267e-13 1.522414e-11 2.560267e-13 1.212413e+01" pbc="T T T"
O 1.173343e+00 -5.000732e-12 -1.135100e-11 -1.032870e+00 -2.127553e-13 4.142055e-13
C -4.450950e-04 -5.368821e-12 -1.088885e-11 6.818197e-01 -5.688116e-14 -3.907518e-13
O -1.166738e+00 -5.772526e-12 -1.043850e-11 3.510192e-01 2.783602e-13 -2.151369e-13
3
Lattice="1.800000e+01 0.000000e+00 0.000000e+00 0.000000e+00 1.800000e+01 0.000000e+00 0.000000e+00 0.000000e+00 1.800000e+01" Properties=species:S:1:pos:R:3:force:R:3 energy=1.175564e-02 dipole="4.566541e-02 -2.601726e-15 -2.525033e-14" pol="2.620464e+01 -2.076534e-10 -6.728759e-10 -2.076534e-10 1.212658e+01 1.914658e-12 -6.728759e-10 1.914658e-12 1.212658e+01" pbc="T T T"
O 1.169334e+00 -4.858656e-12 -1.156501e-11 2.712892e-01 -1.033243e-13 -2.872260e-13
C 9.489677e-03 -5.287076e-12 -1.119049e-11 -1.811343e+00 -3.112726e-13 7.477568e-13
O -1.170215e+00 -5.685478e-12 -1.078862e-11 1.540129e+00 4.285044e-13 -6.160318e-13
3
Lattice="1.800000e+01 0.000000e+00 0.000000e+00 0.000000e+00 1.800000e+01 0.000000e+00 0.000000e+00 0.000000e+00 1.800000e+01" Properties=species:S:1:pos:R:3:force:R:3 energy=6.304634e-03 dipole="-2.346680e-02 -2.786157e-14 -7.639323e-15" pol="2.623595e+01 -2.922966e-10 2.678903e-10 -2.922966e-10 1.213160e+01 -1.849681e-12 2.678903e-10 -1.849681e-12 1.213160e+01" pbc="T T T"
O 1.174256e+00 -4.788447e-12 -1.168893e-11 -1.210348e+00 -6.369687e-13 2.144325e-13
C -1.451274e-03 -5.225855e-12 -1.137385e-11 9.254849e-01 6.810759e-13 -6.791436e-14
O -1.166943e+00 -5.613064e-12 -1.103038e-11 2.848242e-01 -6.886128e-14 -1.963506e-13
3
Lattice="1.800000e+01 0.000000e+00 0.000000e+00 0.000000e+00 1.800000e+01 0.000000e+00 0.000000e+00 0.000000e+00 1.800000e+01" Properties=species:S:1:pos:R:3:force:R:3 energy=3.151959e-03 dipole="-1.608787e-02 2.080490e-14 1.743269e-14" pol="2.617241e+01 -4.777611e-10 -1.393546e-10 -4.777611e-10 1.211400e+01 1.191119e-12 -1.393546e-10 1.191119e-12 1.211400e+01" pbc="T T T"
O 1.172392e+00 -4.664079e-12 -1.216812e-11 -9.222113e-01 5.811385e-14 1.113613e-13
C -3.037485e-04 -4.877580e-12 -1.207579e-11 6.400204e-01 -2.910523e-13 -2.567272e-13
O -1.166008e+00 -5.142899e-12 -1.201355e-11 2.821595e-01 2.156670e-13 1.308174e-13
3
Lattice="1.800000e+01 0.000000e+00 0.000000e+00 0.000000e+00 1.800000e+01 0.000000e+00 0.000000e+00 0.000000e+00 1.800000e+01" Properties=species:S:1:pos:R:3:force:R:3 energy=-4.994076e-04 dipole="-1.359390e-02 -2.236560e-14 -2.703628e-15" pol="2.590996e+01 4.940703e-10 -7.974714e-11 4.940703e-10 1.204351e+01 -1.244987e-12 -7.974714e-11 -1.244987e-12 1.204351e+01" pbc="T T T"
O 1.166332e+00 -4.637928e-12 -1.226079e-11 -2.344630e-01 -1.776605e-13 -3.381565e-14
C 1.016800e-04 -4.853089e-12 -1.221622e-11 5.611512e-01 3.983370e-13 7.430651e-14
O -1.160263e+00 -5.027713e-12 -1.215760e-11 -3.267256e-01 -2.416694e-13 -1.379070e-14
3
Lattice="1.800000e+01 0.000000e+00 0.000000e+00 0.000000e+00 1.800000e+01 0.000000e+00 0.000000e+00 0.000000e+00 1.800000e+01" Properties=species:S:1:pos:R:3:force:R:3 energy=3.930088e-03 dipole="6.967472e-03 -6.994189e-15 1.855988e-15" pol="2.563296e+01 6.324218e-11 -1.113599e-10 6.324218e-11 1.196842e+01 2.391894e-13 -1.113599e-10 2.391894e-13 1.196842e+01" pbc="T T T"
O 1.158827e+00 -4.531502e-12 -1.265330e-11 9.139651e-01 1.961929e-14 -6.197636e-14
C 3.303190e-03 -4.619661e-12 -1.267168e-11 -2.990180e-01 8.456633e-14 -7.240038e-14
O -1.155205e+00 -4.694834e-12 -1.269403e-11 -6.149285e-01 -9.964873e-14 6.350099e-14
3
Lattice="1.800000e+01 0.000000e+00 0.000000e+00 0.000000e+00 1.800000e+01 0.000000e+00 0.000000e+00 0.000000e+00 1.800000e+01" Properties=species:S:1:pos:R:3:force:R:3 energy=6.047068e-03 dipole="2.303418e-02 -1.041619e-14 1.574614e-15" pol="2.563709e+01 3.766896e-10 6.526147e-10 3.766896e-10 1.197029e+01 3.322666e-12 6.526147e-10 3.322666e-12 1.197029e+01" pbc="T T T"
O 1.157945e+00 -4.440999e-12 -1.282929e-11 1.259270e+00 6.876391e-16 6.722420e-14
C 5.798379e-03 -4.508000e-12 -1.289045e-11 -9.883419e-01 1.221267e-13 -3.312761e-14
O -1.156215e+00 -4.557148e-12 -1.295069e-11 -2.708690e-01 -1.069907e-13 -6.879683e-15
3
Lattice="1.800000e+01 0.000000e+00 0.000000e+00 0.000000e+00 1.800000e+01 0.000000e+00 0.000000e+00 0.000000e+00 1.800000e+01" Properties=species:S:1:pos:R:3:force:R:3 energy=4.102406e-03 dipole="2.245840e-02 2.229188e-14 3.224561e-14" pol="2.616914e+01 3.263165e-10 -4.164304e-11 3.263165e-10 1.211365e+01 -1.128184e-12 -4.164304e-11 -1.128184e-12 1.211365e+01" pbc="T T T"
O 1.169962e+00 -4.040291e-12 -1.327609e-11 -1.411126e-01 1.166697e-13 1.199113e-13
C 5.734036e-03 -4.110218e-12 -1.357787e-11 -8.940653e-01 -4.370747e-13 -6.627064e-13
O -1.168252e+00 -4.224240e-12 -1.393646e-11 1.035222e+00 3.010057e-13 4.524691e-13
3
Lattice="1.800000e+01 0.000000e+00 0.000000e+00 0.000000e+00 1.800000e+01 0.000000e+00 0.000000e+00 0.000000e+00 1.800000e+01" Properties=species:S:1:pos:R:3:force:R:3 energy=7.681899e-03 dipole="4.139681e-02 -1.117131e-14 -7.631757e-15" pol="2.609753e+01 -5.792678e-11 1.657819e-09 -5.792678e-11 1.209696e+01 -9.757284e-13 1.657819e-09 -9.757284e-13 1.209696e+01" pbc="T T T"
O 1.167139e+00 -3.948824e-12 -1.332975e-11 4.493386e-01 -7.601450e-14 -5.456059e-14
C 8.707948e-03 -4.079626e-12 -1.372150e-11 -1.666420e+00 1.507504e-13 -1.788885e-13
O -1.167675e+00 -4.174357e-12 -1.407408e-11 1.217167e+00 -2.147356e-15 2.636970e-13
3
Lattice="1.800000e+01 0.000000e+00 0.000000e+00 0.000000e+00 1.800000e+01 0.000000e+00 0.000000e+00 0.000000e+00 1.800000e+01" Properties=species:S:1:pos:R:3:force:R:3 energy=9.170942e-03 dipole="-3.470378e-02 7.945597e-15 -8.407615e-15" pol="2.563814e+01 3.144366e-10 9.826092e-12 3.144366e-10 1.197162e+01 -7.925002e-13 9.826092e-12 -7.925002e-13 1.197162e+01" pbc="T T T"
O 1.161267e+00 -3.850943e-12 -1.342735e-11 3.372872e-02 1.769192e-13 7.178363e-14
C -3.227583e-03 -3.977569e-12 -1.384306e-11 1.489569e+00 8.124176e-15 5.007875e-13
O -1.152858e+00 -4.132488e-12 -1.426092e-11 -1.523383e+00 -8.514053e-14 -5.012949e-13
3
Lattice="1.800000e+01 0.000000e+00 0.000000e+00 0.000000e+00 1.800000e+01 0.000000e+00 0.000000e+00 0.000000e+00 1.800000e+01" Properties=species:S:1:pos:R:3:force:R:3 energy=7.355836e-03 dipole="-3.352043e-02 -2.373346e-14 -2.689050e-14" pol="2.568253e+01 1.266605e-10 6.282116e-10 1.266605e-10 1.198357e+01 -1.503138e-12 6.282116e-10 -1.503138e-12 1.198357e+01" pbc="T T T"
O 1.162196e+00 -3.377783e-12 -1.377125e-11 -5.629928e-02 -7.370508e-14 -1.086792e-13
C -3.069282e-03 -3.699588e-12 -1.433462e-11 1.429748e+00 6.178941e-13 8.703348e-13
O -1.153959e+00 -3.988415e-12 -1.487018e-11 -1.373534e+00 -4.677178e-13 -7.949377e-13
3
Lattice="1.800000e+01 0.000000e+00 0.000000e+00 0.000000e+00 1.800000e+01 0.000000e+00 0.000000e+00 0.000000e+00 1.800000e+01" Properties=species:S:1:pos:R:3:force:R:3 energy=8.467003e-03 dipole="3.246076e-02 1.309419e-14 4.397005e-14" pol="2.623791e+01 -2.876864e-11 -9.500385e-11 -2.876864e-11 1.213325e+01 2.048586e-12 -9.500385e-11 2.048586e-12 1.213325e+01" pbc="T T T"
O 1.170820e+00 -3.145812e-12 -1.394330e-11 -9.946816e-02 -2.823415e-15 1.886026e-13
C 7.283955e-03 -3.510580e-12 -1.453927e-11 -1.280407e+00 -4.751511e-13 -1.032132e-12
O -1.170383e+00 -3.890081e-12 -1.519095e-11 1.379927e+00 4.866670e-13 9.233440e-13
3
Lattice="1.800000e+01 0.000000e+00 0.000000e+00 0.000000e+00 1.800000e+01 0.000000e+00 0.000000e+00 0.000000e+00 1.800000e+01" Properties=species:S:1:pos:R:3:force:R:3 energy=4.019718e-03 dipole="-2.555462e-02 -6.859904e-15 2.607496e-15" pol="2.614047e+01 2.027223e-10 -4.381508e-10 2.027223e-10 1.210630e+01 -7.687261e-13 -4.381508e-10 -7.687261e-13 1.210630e+01" pbc="T T T"
O 1.172095e+00 -2.836399e-12 -1.418689e-11 -1.025766e+00 -3.465885e-13 -4.919010e-13
C -1.904859e-03 -3.228472e-12 -1.488763e-11 1.021578e+00 3.125793e-13 3.095497e-13
O -1.164809e+00 -3.622787e-12 -1.562242e-11 4.135714e-03 1.719524e-14 1.546005e-13
3
Lattice="1.800000e+01 0.000000e+00 0.000000e+00 0.000000e+00 1.800000e+01 0.000000e+00 0.000000e+00 0.000000e+00 1.800000e+01" Properties=species:S:1:pos:R:3:force:R:3 energy=1.033301e-02 dipole="3.902138e-02 -5.238473e-15 1.850762e-14" pol="2.564767e+01 -4.020425e-10 -2.034954e-10 -4.020425e-10 1.197470e+01 -3.148101e-12 -2.034954e-10 -3.148101e-12 1.197470e+01" pbc="T T T"
O 1.157051e+00 -2.058698e-12 -1.528398e-11 1.597401e+00 -1.875062e-14 7.666039e-13
C 8.150131e-03 -2.139757e-12 -1.585622e-11 -1.673038e+00 7.563912e-14 -7.589656e-13
O -1.157469e+00 -2.200747e-12 -1.643327e-11 7.573072e-02 -9.441582e-14 -4.813355e-14
3
Lattice="1.800000e+01 0.000000e+00 0.000000e+00 0.000000e+00 1.800000e+01 0.000000e+00 0.000000e+00 0.000000e+00 1.800000e+01" Properties=species:S:1:pos:R:3:force:R:3 energy=4.877438e-03 dipole="-1.894722e-02 2.255914e-14 -2.184430e-14" pol="2.621676e+01 2.290521e-10 2.098916e-11 2.290521e-10 1.212605e+01 1.305454e-12 2.098916e-11 1.305454e-12 1.212605e+01" pbc="T T T"
O 1.173367e+00 -1.746987e-12 -1.557880e-11 -1.081038e+00 1.016641e-13 -7.102697e-13
C -9.404335e-04 -1.799486e-12 -1.607860e-11 7.491389e-01 -3.177956e-13 5.466737e-13
O -1.167004e+00 -1.900344e-12 -1.654366e-11 3.318663e-01 2.403617e-13 5.254997e-14
3
Lattice="1.800000e+01 0.000000e+00 0.000000e+00 0.000000e+00 1.800000e+01 0.000000e+00 0.000000e+00 0.000000e+00 1.800000e+01" Properties=species:S:1:pos:R:3:force:R:3 energy=7.987740e-03 dipole="-4.164693e-02 -1.703191e-14 -1.452633e-15" pol="2.577181e+01 9.674625e-10 -5.940870e-10 9.674625e-10 1.200883e+01 6.543067e-13 -5.940870e-10 6.543067e-13 1.200883e+01" pbc="T T T"
O 1.164551e+00 -1.377243e-12 -1.586619e-11 -4.385140e-01 -1.257303e-13 -1.231467e-14
C -4.465359e-03 -1.517515e-12 -1.623560e-11 1.755026e+00 3.636355e-13 4.184479e-13
O -1.155579e+00 -1.632849e-12 -1.662641e-11 -1.316617e+00 -2.148792e-13 -3.409846e-13
3
Lattice="1.800000e+01 0.000000e+00 0.000000e+00 0.000000e+00 1.800000e+01 0.000000e+00 0.000000e+00 0.000000e+00 1.800000e+01" Properties=species:S:1:pos:R:3:force:R:3 energy=2.483801e-03 dipole="2.326183e-03 2.114629e-14 -4.415843e-15" pol="2.618674e+01 -6.001942e-11 1.606612e-10 -6.001942e-11 1.211730e+01 -1.190286e-12 1.606612e-10 -1.190286e-12 1.211730e+01" pbc="T T T"
O 1.171435e+00 -1.075696e-12 -1.609390e-11 -5.969155e-01 1.536705e-13 -2.798093e-13
C 2.398971e-03 -1.248447e-12 -1.637842e-11 -9.231330e-02 -3.130555e-13 1.222652e-13
O -1.167648e+00 -1.467945e-12 -1.664411e-11 6.892333e-01 2.734376e-13 1.161309e-13
3
Lattice="1.800000e+01 0.000000e+00 0.000000e+00 0.000000e+00 1.800000e+01 0.000000e+00 0.000000e+00 0.000000e+00 1.800000e+01" Properties=species:S:1:pos:R:3:force:R:3 energy=4.739868e-03 dipole="3.478065e-02 2.709390e-14 -1.230243e-14" pol="2.604702e+01 4.088390e-10 6.084714e-11 4.088390e-10 1.208235e+01 -3.331467e-13 6.084714e-11 -3.331467e-13 1.208235e+01" pbc="T T T"
O 1.166269e+00 -5.113282e-13 -1.647696e-11 4.327402e-01 2.706555e-13 -1.186176e-13
C 7.488732e-03 -8.194149e-13 -1.657908e-11 -1.409481e+00 -6.950568e-13 8.232718e-14
O -1.166354e+00 -1.174388e-12 -1.665459e-11 9.768197e-01 4.997941e-13 3.252898e-15
3
Lattice="1.800000e+01 0.000000e+00 0.000000e+00 0.000000e+00 1.800000e+01 0.000000e+00 0.000000e+00 0.000000e+00 1.800000e+01" Properties=species:S:1:pos:R:3:force:R:3 energy=2.939868e-03 dipole="1.088057e-02 2.517256e-14 -8.286183e-15" pol="2.618605e+01 -9.101063e-11 4.318339e-11 -9.101063e-11 1.211733e+01 1.672958e-12 4.318339e-11 1.672958e-12 1.211733e+01" pbc="T T T"
O 1.170877e+00 -2.932422e-13 -1.660643e-11 -4.226207e-01 4.796882e-14 -1.358347e-14
C 3.725153e-03 -6.394734e-13 -1.664932e-11 -4.319689e-01 -4.454339e-13 1.120377e-13
O -1.168157e+00 -1.030600e-12 -1.667719e-11 8.546104e-01 4.239368e-13 -4.439076e-14
3
Lattice="1.800000e+01 0.000000e+00 0.000000e+00 0.000000e+00 1.800000e+01 0.000000e+00 0.000000e+00 0.000000e+00 1.800000e+01" Properties=species:S:1:pos:R:3:force:R:3 energy=1.144580e-03 dipole="-2.155204e-02 1.061543e-14 -1.905497e-15" pol="2.601570e+01 -6.055932e-11 9.991328e-11 -6.055932e-11 1.207246e+01 1.446960e-13 9.991328e-11 1.446960e-13 1.207246e+01" pbc="T T T"
O 1.168933e+00 -7.110746e-14 -1.673867e-11 -6.511206e-01 -1.246259e-13 -5.369199e-14
C -1.392497e-03 -4.425126e-13 -1.672528e-11 8.767110e-01 8.041040e-14 8.080345e-14
O -1.162392e+00 -8.445665e-13 -1.670527e-11 -2.256438e-01 3.564621e-14 1.300111e-14
3
Lattice="1.800000e+01 0.000000e+00 0.000000e+00 0.000000e+00 1.800000e+01 0.000000e+00 0.000000e+00 0.000000e+00 1.800000e+01" Properties=species:S:1:pos:R:3:force:R:3 energy=-1.230814e-03 dipole="3.377381e-03 9.859542e-15 -2.975580e-15" pol="2.595791e+01 -3.458982e-12 -9.893356e-11 -3.458982e-12 1.205609e+01 -2.805603e-13 -9.893356e-11 -2.805603e-13 1.205609e+01" pbc="T T T"
O 1.166174e+00 3.313025e-13 -1.702423e-11 -1.005295e-02 5.968802e-14 4.605753e-14
C 2.510447e-03 -1.122823e-14 -1.689224e-11 -1.384443e-01 -2.188569e-13 1.683013e-14
O -1.162612e+00 -3.782735e-13 -1.675833e-11 1.485063e-01 9.293364e-14 -8.429181e-14
3
Lattice="1.800000e+01 0.000000e+00 0.000000e+00 0.000000e+00 1.800000e+01 0.000000e+00 0.000000e+00 0.000000e+00 1.800000e+01" Properties=species:S:1:pos:R:3:force:R:3 energy=7.918441e-03 dipole="2.996577e-02 -6.086641e-16 -2.471472e-15" pol="2.624091e+01 -1.977555e-10 2.547536e-10 -1.977555e-10 1.213371e+01 -3.240566e-12 2.547536e-10 -3.240566e-12 1.213371e+01" pbc="T T T"
O 1.171627e+00 -4.686042e-15 -7.453331e-15 -1.600513e-01 -2.975536e-15 -5.172346e-15
C 7.468544e-03 -1.108807e-14 -8.723458e-16 -1.181331e+00 -5.989693e-15 2.408524e-14
O -1.169736e+00 -1.379557e-14 6.101099e-15 1.341430e+00 2.719063e-15 3.264399e-14
3
Lattice="1.800000e+01 0.000000e+00 0.000000e+00 0.000000e+00 1.800000e+01 0.000000e+00 0.000000e+00 0.000000e+00 1.800000e+01" Properties=species:S:1:pos:R:3:force:R:3 energy=-3.832661e-04 dipole="-7.552738e-03 6.519735e-15 9.829678e-16" pol="2.603793e+01 -4.419453e-10 2.632024e-10 -4.419453e-10 1.207763e+01 1.586947e-12 2.632024e-10 1.586947e-12 1.207763e+01" pbc="T T T"
O 1.169364e+00 -7.741279e-15 -1.171342e-14 -4.310987e-01 5.008358e-14 -4.805296e-14
C 1.534525e-03 -1.305054e-14 -2.175293e-15 3.061618e-01 -9.479062e-14 1.117048e-14
O -1.163024e+00 -2.426229e-14 7.908348e-15 1.249182e-01 1.137238e-15 -6.992122e-15
3
Lattice="1.800000e+01 0.000000e+00 0.000000e+00 0.000000e+00 1.800000e+01 0.000000e+00 0.000000e+00 0.000000e+00 1.800000e+01" Properties=species:S:1:pos:R:3:force:R:3 energy=2.116180e-03 dipole="-2.949794e-03 -5.445228e-17 1.391749e-15" pol="2.568435e+01 -4.878627e-10 -2.735605e-10 -4.878627e-10 1.198230e+01 -7.442545e-13 -2.735605e-10 -7.442545e-13 1.198230e+01" pbc="T T T"
O 1.161073e+00 -1.232636e-14 -5.336066e-14 5.639280e-01 1.987071e-14 -9.723408e-14
C 2.250930e-03 -4.156845e-14 -2.390844e-16 1.256656e-01 1.527193e-14 -3.090127e-14
O -1.155306e+00 -6.843549e-14 5.251284e-14 -6.896018e-01 -5.714548e-14 8.893231e-15
3
Lattice="1.800000e+01 0.000000e+00 0.000000e+00 0.000000e+00 1.800000e+01 0.000000e+00 0.000000e+00 0.000000e+00 1.800000e+01" Properties=species:S:1:pos:R:3:force:R:3 energy=1.061888e-02 dipole="4.485757e-02 9.318838e-15 -5.981581e-15" pol="2.617426e+01 -9.696433e-10 1.555920e-10 -9.696433e-10 1.211824e+01 -1.773110e-12 1.555920e-10 -1.773110e-12 1.211824e+01" pbc="T T T"
O 1.169141e+00 1.363336e-14 -1.314736e-13 3.303420e-01 1.835871e-13 -2.986906e-14
C 9.785672e-03 -5.353929e-14 -1.599728e-15 -1.786805e+00 -1.571160e-13 2.011703e-13
O -1.169062e+00 -1.290000e-13 1.310186e-13 1.456542e+00 1.197823e-13 -1.662725e-13
3
Lattice="1.800000e+01 0.000000e+00 0.000000e+00 0.000000e+00 1.800000e+01 0.000000e+00 0.000000e+00 0.000000e+00 1.800000e+01" Properties=species:S:1:pos:R:3:force:R:3 energy=3.428314e-03 dipole="-5.404955e-03 -1.271892e-15 -2.100535e-15" pol="2.621458e+01 2.301780e-10 -3.230972e-10 2.301780e-10 1.212475e+01 -1.239988e-12 -3.230972e-10 -1.239988e-12 1.212475e+01" pbc="T T T"
O 1.173173e+00 9.541447e-14 -2.635665e-13 -8.163033e-01 -1.446436e-13 1.942543e-13
C 1.833465e-03 -6.139432e-14 -1.494374e-14 2.136924e-01 1.014139e-13 3.063751e-14
O -1.167154e+00 -2.144573e-13 2.391402e-13 6.026013e-01 5.249159e-14 -1.164820e-13
3
Lattice="1.800000e+01 0.000000e+00 0.000000e+00 0.000000e+00 1.800000e+01 0.000000e+00 0.000000e+00 0.000000e+00 1.800000e+01" Properties=species:S:1:pos:R:3:force:R:3 energy=1.107537e-02 dipole="-4.049036e-02 -5.970155e-15 1.303743e-14" pol="2.624288e+01 1.103453e-09 -1.521329e-10 1.103453e-09 1.213589e+01 -3.296405e-12 -1.521329e-10 -3.296405e-12 1.213589e+01" pbc="T T T"
O 1.175750e+00 2.272401e-13 -4.047451e-13 -1.535410e+00 -3.832951e-13 4.602140e-13
C -3.728881e-03 -4.900299e-14 -4.063720e-14 1.596836e+00 3.417445e-13 -5.468405e-13
O -1.165579e+00 -3.281282e-13 3.164437e-13 -6.148774e-02 6.847205e-14 8.928778e-14
3
Lattice="1.800000e+01 0.000000e+00 0.000000e+00 0.000000e+00 1.800000e+01 0.000000e+00 0.000000e+00 0.000000e+00 1.800000e+01" Properties=species:S:1:pos:R:3:force:R:3 energy=4.299484e-03 dipole="3.475489e-02 1.158054e-14 -1.411279e-14" pol="2.600449e+01 -5.804577e-10 1.850365e-11 -5.804577e-10 1.207088e+01 -2.163852e-12 1.850365e-11 -2.163852e-12 1.207088e+01" pbc="T T T"
O 1.165977e+00 5.899154e-13 -6.930431e-13 5.420108e-01 2.293835e-13 -2.473450e-13
C 8.139539e-03 1.015014e-13 -2.348497e-13 -1.416889e+00 -5.564084e-13 5.355956e-13
O -1.164733e+00 -3.900974e-13 2.304370e-13 8.749611e-01 3.664030e-13 -3.799323e-13
3
Lattice="1.800000e+01 0.000000e+00 0.000000e+00 0.000000e+00 1.800000e+01 0.000000e+00 0.000000e+00 0.000000e+00 1.800000e+01" Properties=species:S:1:pos:R:3:force:R:3 energy=1.460482e-03 dipole="-1.067747e-02 -1.004821e-14 -7.956940e-15" pol="2.572850e+01 6.110404e-10 6.220545e-11 6.110404e-10 1.199442e+01 -1.311085e-12 6.220545e-11 -1.311085e-12 1.199442e+01" pbc="T T T"
O 1.162499e+00 8.409606e-13 -8.147123e-13 2.868283e-01 8.248380e-14 -5.653387e-14
C 1.019110e-03 2.852847e-13 -4.120387e-13 4.521443e-01 2.421677e-13 -1.566521e-13
O -1.155876e+00 -2.683770e-13 -1.452909e-15 -7.390026e-01 -3.025001e-13 3.121373e-13
3
Lattice="1.800000e+01 0.000000e+00 0.000000e+00 0.000000e+00 1.800000e+01 0.000000e+00 0.000000e+00 0.000000e+00 1.800000e+01" Properties=species:S:1:pos:R:3:force:R:3 energy=7.230285e-04 dipole="-1.458544e-02 2.770135e-15 -4.335587e-16" pol="2.606839e+01 1.370427e-10 -3.365822e-10 1.370427e-10 1.208609e+01 -2.306811e-13 -3.365822e-10 -2.306811e-13 1.208609e+01" pbc="T T T"
O 1.170428e+00 1.058224e-12 -8.664190e-13 -6.438621e-01 -2.263826e-13 2.498924e-13
C 3.997243e-04 4.486789e-13 -5.508671e-13 5.888009e-01 1.032640e-13 -2.285984e-13
O -1.163308e+00 -1.857438e-13 -2.426398e-13 5.502680e-02 1.368645e-13 1.787963e-16
3
Lattice="1.800000e+01 0.000000e+00 0.000000e+00 0.000000e+00 1.800000e+01 0.000000e+00 0.000000e+00 0.000000e+00 1.800000e+01" Properties=species:S:1:pos:R:3:force:R:3 energy=1.457024e-03 dipole="-1.922359e-02 -1.521352e-14 -5.071273e-15" pol="2.578777e+01 1.936936e-10 -5.598592e-10 1.936936e-10 1.201087e+01 -1.072038e-12 -5.598592e-10 -1.072038e-12 1.201087e+01" pbc="T T T"
O 1.164359e+00 1.323064e-12 -9.125080e-13 -3.937167e-02 -6.999132e-14 4.105816e-14
C -2.922188e-04 6.508975e-13 -7.779184e-13 8.074378e-01 4.482961e-13 -1.538443e-14
O -1.156675e+00 -1.977643e-14 -6.350291e-13 -7.681197e-01 -3.850624e-13 6.141024e-14
3
Lattice="1.800000e+01 0.000000e+00 0.000000e+00 0.000000e+00 1.800000e+01 0.000000e+00 0.000000e+00 0.000000e+00 1.800000e+01" Properties=species:S:1:pos:R:3:force:R:3 energy=-2.939094e-05 dipole="-4.859218e-03 -1.182404e-14 1.893942e-15" pol="2.607237e+01 3.586380e-10 3.941478e-10 3.586380e-10 1.208679e+01 -3.713582e-14 3.941478e-10 -3.713582e-14 1.208679e+01" pbc="T T T"
O 1.169985e+00 1.546058e-12 -1.108313e-12 -4.619418e-01 -3.927996e-13 8.586177e-14
C 1.960072e-03 8.729098e-13 -1.056701e-12 1.960087e-01 2.522098e-13 -1.380837e-16
O -1.163959e+00 2.212353e-13 -1.004354e-12 2.659215e-01 5.782876e-14 -1.045682e-13
3
Lattice="1.800000e+01 0.000000e+00 0.000000e+00 0.000000e+00 1.800000e+01 0.000000e+00 0.000000e+00 0.000000e+00 1.800000e+01" Properties=species:S:1:pos:R:3:force:R:3 energy=-4.472235e-04 dipole="-7.502976e-03 -1.136492e-14 -8.286274e-16" pol="2.582123e+01 -1.509429e-10 2.358475e-10 -1.509429e-10 1.201938e+01 -5.852232e-13 2.358475e-10 -5.852232e-13 1.201938e+01" pbc="T T T"
O 1.164467e+00 1.663692e-12 -1.355819e-12 1.133143e-01 -1.545497e-14 -3.231905e-14
C 1.555089e-03 1.069212e-12 -1.319734e-12 3.135781e-01 2.231677e-13 -4.664364e-14
O -1.158127e+00 4.836749e-13 -1.283828e-12 -4.269137e-01 -2.739317e-13 4.601268e-14
3
Lattice="1.800000e+01 0.000000e+00 0.000000e+00 0.000000e+00 1.800000e+01 0.000000e+00 0.000000e+00 0.000000e+00 1.800000e+01" Properties=species:S:1:pos:R:3:force:R:3 energy=1.605215e-03 dipole="6.561434e-03 -7.785300e-15 -7.680299e-15" pol="2.570914e+01 -6.100664e-11 9.698722e-11 -6.100664e-11 1.198906e+01 -1.895505e-12 9.698722e-11 -1.895505e-12 1.198906e+01" pbc="T T T"
O 1.161097e+00 1.706377e-12 -1.444538e-12 7.014131e-01 1.896068e-13 -2.160288e-14
C 3.752515e-03 1.123366e-12 -1.408091e-12 -2.785861e-01 1.115422e-13 1.115013e-13
O -1.156407e+00 5.692552e-13 -1.361083e-12 -4.228086e-01 -3.674539e-13 -2.509642e-14
3
Lattice="1.800000e+01 0.000000e+00 0.000000e+00 0.000000e+00 1.800000e+01 0.000000e+00 0.000000e+00 0.000000e+00 1.800000e+01" Properties=species:S:1:pos:R:3:force:R:3 energy=9.661597e-04 dipole="-2.074333e-02 -2.455018e-14 -6.216626e-15" pol="2.584687e+01 -4.519865e-10 -2.850885e-10 -4.519865e-10 1.202695e+01 -9.159941e-13 -2.850885e-10 -9.159941e-13 1.202695e+01" pbc="T T T"
O 1.165783e+00 2.031102e-12 -2.168373e-12 -2.188479e-01 -2.185262e-13 -1.993805e-14
C -5.373198e-04 1.538768e-12 -1.971196e-12 8.640930e-01 6.722942e-13 -4.070070e-14
O -1.157922e+00 1.087332e-12 -1.759955e-12 -6.453024e-01 -4.205875e-13 9.132644e-14
3
Lattice="1.800000e+01 0.000000e+00 0.000000e+00 0.000000e+00 1.800000e+01 0.000000e+00 0.000000e+00 0.000000e+00 1.800000e+01" Properties=species:S:1:pos:R:3:force:R:3 energy=2.188357e-03 dipole="1.456982e-02 1.685227e-14 -2.862663e-15" pol="2.571708e+01 9.065309e-10 -1.471349e-10 9.065309e-10 1.199149e+01 3.062635e-12 -1.471349e-10 3.062635e-12 1.199149e+01" pbc="T T T"
O 1.160773e+00 2.092559e-12 -2.355297e-12 8.543429e-01 3.235617e-13 -1.943654e-13
C 4.978975e-03 1.659396e-12 -2.091968e-12 -6.180111e-01 -3.943012e-13 9.342258e-14
O -1.157070e+00 1.196258e-12 -1.826652e-12 -2.362913e-01 2.238331e-14 2.189424e-14
3
Lattice="1.800000e+01 0.000000e+00 0.000000e+00 0.000000e+00 1.800000e+01 0.000000e+00 0.000000e+00 0.000000e+00 1.800000e+01" Properties=species:S:1:pos:R:3:force:R:3 energy=4.699132e-03 dipole="1.410048e-02 3.874086e-14 3.832577e-15" pol="2.623181e+01 1.342447e-10 2.108608e-10 1.342447e-10 1.212970e+01 -7.134989e-13 2.108608e-10 -7.134989e-13 1.212970e+01" pbc="T T T"
O 1.172398e+00 2.156810e-12 -2.539654e-12 -4.683497e-01 1.297854e-13 2.366590e-13
C 4.930831e-03 1.769684e-12 -2.212618e-12 -5.562420e-01 -6.874574e-13 6.750181e-14
O -1.168674e+00 1.309981e-12 -1.896004e-12 1.024616e+00 6.119787e-13 -2.806426e-13
3
Lattice="1.800000e+01 0.000000e+00 0.000000e+00 0.000000e+00 1.800000e+01 0.000000e+00 0.000000e+00 0.000000e+00 1.800000e+01" Properties=species:S:1:pos:R:3:force:R:3 energy=3.631858e-03 dipole="1.115878e-03 3.683522e-14 6.790252e-15" pol="2.622450e+01 6.247938e-10 1.624780e-10 6.247938e-10 1.212736e+01 6.975086e-13 1.624780e-10 6.975086e-13 1.212736e+01" pbc="T T T"
O 1.173014e+00 2.225566e-12 -2.750550e-12 -7.118821e-01 1.554148e-14 3.398812e-13
C 2.868728e-03 1.890829e-12 -2.373846e-12 -4.401750e-02 -5.401868e-13 -8.228092e-14
O -1.167762e+00 1.484018e-12 -2.008361e-12 7.559015e-01 4.744369e-13 -1.855764e-13
3
Lattice="1.800000e+01 0.000000e+00 0.000000e+00 0.000000e+00 1.800000e+01 0.000000e+00 0.000000e+00 0.000000e+00 1.800000e+01" Properties=species:S:1:pos:R:3:force:R:3 energy=3.980309e-03 dipole="-7.052284e-03 -1.800625e-14 -5.423371e-15" pol="2.622890e+01 1.259422e-11 4.184627e-10 1.259422e-11 1.212861e+01 -1.075129e-12 4.184627e-10 -1.075129e-12 1.212861e+01" pbc="T T T"
O 1.173574e+00 2.544523e-12 -3.537691e-12 -8.823890e-01 -7.493005e-14 7.585614e-14
C 1.556114e-03 2.586972e-12 -3.353003e-12 2.782697e-01 2.364976e-13 3.906964e-14
O -1.167392e+00 2.666613e-12 -3.154305e-12 6.041072e-01 -1.877524e-13 -1.618837e-13
3
Lattice="1.800000e+01 0.000000e+00 0.000000e+00 0.000000e+00 1.800000e+01 0.000000e+00 0.000000e+00 0.000000e+00 1.800000e+01" Properties=species:S:1:pos:R:3:force:R:3 energy=8.758814e-03 dipole="-3.366812e-02 -3.094848e-15 -8.545045e-15" pol="2.623667e+01 1.215499e-09 -1.013370e-10 1.215499e-09 1.213310e+01 1.289369e-12 -1.013370e-10 1.289369e-12 1.213310e+01" pbc="T T T"
O 1.175248e+00 2.698194e-12 -4.059787e-12 -1.398950e+00 2.976397e-13 1.657016e-14
C -2.646712e-03 3.039443e-12 -3.977291e-12 1.328357e+00 -2.126041e-13 4.283459e-14
O -1.165886e+00 3.404353e-12 -3.874729e-12 7.053997e-02 -1.140327e-13 -1.893966e-14
3
Lattice="1.800000e+01 0.000000e+00 0.000000e+00 0.000000e+00 1.800000e+01 0.000000e+00 0.000000e+00 0.000000e+00 1.800000e+01" Properties=species:S:1:pos:R:3:force:R:3 energy=-1.187054e-03 dipole="8.162672e-04 1.747821e-14 2.754694e-15" pol="2.597728e+01 5.518433e-11 -2.633137e-10 5.518433e-11 1.206131e+01 2.583042e-12 -2.633137e-10 2.583042e-12 1.206131e+01" pbc="T T T"
O 1.167474e+00 2.780848e-12 -4.445172e-12 -1.115308e-01 2.140716e-13 9.309563e-14
C 2.819699e-03 3.289398e-12 -4.328123e-12 -3.331874e-02 -2.647305e-13 -6.842152e-14
O -1.162187e+00 3.766338e-12 -4.221746e-12 1.448517e-01 3.468273e-14 6.259156e-15
3
Lattice="1.800000e+01 0.000000e+00 0.000000e+00 0.000000e+00 1.800000e+01 0.000000e+00 0.000000e+00 0.000000e+00 1.800000e+01" Properties=species:S:1:pos:R:3:force:R:3 energy=1.109151e-02 dipole="4.423284e-02 -3.379281e-14 -1.941440e-14" pol="2.620040e+01 -5.812806e-10 -8.398145e-10 -5.812806e-10 1.212516e+01 4.404726e-12 -8.398145e-10 4.404726e-12 1.212516e+01" pbc="T T T"
O 1.169774e+00 2.905553e-12 -5.151864e-12 2.503138e-01 -1.316447e-13 -1.401099e-13
C 9.701374e-03 3.577084e-12 -4.920550e-12 -1.755374e+00 1.122316e-12 5.685694e-13
O -1.169606e+00 4.273419e-12 -4.659529e-12 1.505134e+00 -9.148029e-13 -4.782947e-13
3
Lattice="1.800000e+01 0.000000e+00 0.000000e+00 0.000000e+00 1.800000e+01 0.000000e+00 0.000000e+00 0.000000e+00 1.800000e+01" Properties=species:S:1:pos:R:3:force:R:3 energy=5.050507e-03 dipole="2.327494e-02 1.934695e-15 -1.895450e-14" pol="2.566910e+01 -3.615189e-10 -4.710600e-10 -3.615189e-10 1.197900e+01 -9.901604e-13 -4.710600e-10 -9.901604e-13 1.197900e+01" pbc="T T T"
O 1.159161e+00 2.952045e-12 -5.394977e-12 1.177255e+00 -6.697276e-13 -3.882878e-13
C 6.341031e-03 3.686429e-12 -5.107288e-12 -9.941953e-01 4.028101e-13 4.107053e-13
O -1.156457e+00 4.397630e-12 -4.793911e-12 -1.829979e-01 2.468790e-13 -4.526267e-14
3
Lattice="1.800000e+01 0.000000e+00 0.000000e+00 0.000000e+00 1.800000e+01 0.000000e+00 0.000000e+00 0.000000e+00 1.800000e+01" Properties=species:S:1:pos:R:3:force:R:3 energy=4.950049e-03 dipole="1.836069e-02 2.820501e-16 -1.884980e-14" pol="2.622188e+01 -3.651096e-10 -1.775694e-10 -3.651096e-10 1.212737e+01 -3.849415e-12 -1.775694e-10 -3.849415e-12 1.212737e+01" pbc="T T T"
O 1.171941e+00 3.346066e-12 -6.617119e-12 -3.565631e-01 4.389215e-13 1.531049e-14
C 5.633823e-03 4.148928e-12 -6.194743e-12 -7.254089e-01 2.137712e-13 5.434539e-13
O -1.168663e+00 4.925029e-12 -5.732469e-12 1.082004e+00 -5.701046e-13 -5.051283e-13
3
Lattice="1.800000e+01 0.000000e+00 0.000000e+00 0.000000e+00 1.800000e+01 0.000000e+00 0.000000e+00 0.000000e+00 1.800000e+01" Properties=species:S:1:pos:R:3:force:R:3 energy=1.777606e-03 dipole="-2.314814e-02 1.928163e-14 -9.392841e-15" pol="2.604429e+01 -5.757074e-10 9.308078e-10 -5.757074e-10 1.208028e+01 1.940011e-12 9.308078e-10 1.940011e-12 1.208028e+01" pbc="T T T"
O 1.170397e+00 3.498147e-12 -6.902875e-12 -7.509027e-01 5.142293e-13 1.648515e-13
C -9.159735e-04 4.249702e-12 -6.495034e-12 9.379098e-01 -6.894133e-13 -1.593145e-13
O -1.162204e+00 4.982706e-12 -6.057650e-12 -1.870623e-01 2.506465e-13 -2.091206e-14
3
Lattice="1.800000e+01 0.000000e+00 0.000000e+00 0.000000e+00 1.800000e+01 0.000000e+00 0.000000e+00 0.000000e+00 1.800000e+01" Properties=species:S:1:pos:R:3:force:R:3 energy=2.319268e-03 dipole="-2.858871e-02 -7.240499e-15 1.917348e-14" pol="2.591126e+01 -1.641603e-10 1.207384e-09 -1.641603e-10 1.204502e+01 1.347844e-12 1.207384e-09 1.347844e-12 1.204502e+01" pbc="T T T"
O 1.167690e+00 3.694847e-12 -7.220742e-12 -5.319299e-01 9.059516e-14 2.890458e-13
C -1.759683e-03 4.334391e-12 -6.835579e-12 1.180523e+00 -3.698139e-13 -5.371109e-13
O -1.158873e+00 5.014387e-12 -6.471191e-12 -6.486678e-01 1.067440e-13 2.724859e-13
3
Lattice="1.800000e+01 0.000000e+00 0.000000e+00 0.000000e+00 1.800000e+01 0.000000e+00 0.000000e+00 0.000000e+00 1.800000e+01" Properties=species:S:1:pos:R:3:force:R:3 energy=1.592499e-03 dipole="-4.279180e-03 -2.574331e-14 9.479593e-15" pol="2.615165e+01 -5.910527e-10 -3.695893e-10 -5.910527e-10 1.210796e+01 -5.571036e-13 -3.695893e-10 -5.571036e-13 1.210796e+01" pbc="T T T"
O 1.171683e+00 4.887491e-12 -9.239872e-12 -6.432352e-01 -1.460989e-13 9.047291e-14
C 2.000285e-03 4.823215e-12 -9.335494e-12 1.706873e-01 4.330002e-13 -1.270820e-13
O -1.165824e+00 4.812987e-12 -9.453166e-12 4.725390e-01 -1.964565e-13 1.070644e-13
3
Lattice="1.800000e+01 0.000000e+00 0.000000e+00 0.000000e+00 1.800000e+01 0.000000e+00 0.000000e+00 0.000000e+00 1.800000e+01" Properties=species:S:1:pos:R:3:force:R:3 energy=2.629947e-03 dipole="-1.234683e-02 -2.660161e-14 5.042021e-15" pol="2.616972e+01 -2.368386e-10 8.259499e-11 -2.368386e-10 1.211305e+01 -2.532406e-13 8.259499e-11 -2.532406e-13 1.211305e+01" pbc="T T T"
O 1.172554e+00 5.030811e-12 -9.482526e-12 -8.440134e-01 -2.883767e-13 -8.103376e-14
C 7.225579e-04 4.887924e-12 -9.650092e-12 4.913284e-01 4.491335e-13 -5.086356e-14
O -1.165743e+00 4.799195e-12 -9.833564e-12 3.526606e-01 -1.954149e-13 1.663009e-13
3
Lattice="1.800000e+01 0.000000e+00 0.000000e+00 0.000000e+00 1.800000e+01 0.000000e+00 0.000000e+00 0.000000e+00 1.800000e+01" Properties=species:S:1:pos:R:3:force:R:3 energy=8.865489e-03 dipole="-3.450922e-02 5.351427e-15 -1.925181e-14" pol="2.564512e+01 -4.776735e-11 -6.061706e-10 -4.776735e-11 1.197350e+01 -5.091950e-13 -6.061706e-10 -5.091950e-13 1.197350e+01" pbc="T T T"
O 1.161912e+00 5.128709e-12 -9.632561e-12 1.968772e-02 1.308730e-13 -1.362861e-13
C -2.702630e-03 4.962846e-12 -9.875134e-12 1.479751e+00 8.387603e-14 4.469799e-13
O -1.152533e+00 4.777069e-12 -1.009279e-11 -1.499524e+00 -1.419013e-13 -3.543908e-13
3
Lattice="1.800000e+01 0.000000e+00 0.000000e+00 0.000000e+00 1.800000e+01 0.000000e+00 0.000000e+00 0.000000e+00 1.800000e+01" Properties=species:S:1:pos:R:3:force:R:3 energy=-1.026871e-03 dipole="7.803235e-03 4.405426e-15 -1.135743e-14" pol="2.589992e+01 -7.803310e-12 -3.528063e-10 -7.803310e-12 1.204059e+01 1.113180e-12 -3.528063e-10 1.113180e-12 1.204059e+01" pbc="T T T"
O 1.165309e+00 5.956378e-12 -1.090820e-11 2.298752e-01 1.058676e-13 1.324573e-14
C 3.912978e-03 5.457998e-12 -1.142986e-11 -3.225324e-01 -1.695364e-13 7.939629e-14
O -1.160849e+00 4.953069e-12 -1.192656e-11 9.267887e-02 6.559565e-14 -4.604877e-14
3
Lattice="1.800000e+01 0.000000e+00 0.000000e+00 0.000000e+00 1.800000e+01 0.000000e+00 0.000000e+00 0.000000e+00 1.800000e+01" Properties=species:S:1:pos:R:3:force:R:3 energy=-1.807984e-04 dipole="5.133635e-03 2.026646e-14 4.939747e-15" pol="2.606206e+01 -6.080270e-10 3.596392e-10 -6.080270e-10 1.208404e+01 -1.340295e-12 3.596392e-10 -1.340295e-12 1.208404e+01" pbc="T T T"
O 1.169130e+00 6.066822e-12 -1.110016e-11 -2.347392e-01 6.899380e-14 -1.340089e-13
C 3.502802e-03 5.556684e-12 -1.163088e-11 -2.073813e-01 -3.460842e-13 -8.145932e-14
O -1.164349e+00 5.010589e-12 -1.216116e-11 4.421328e-01 2.715848e-13 2.180253e-13
3
Lattice="1.800000e+01 0.000000e+00 0.000000e+00 0.000000e+00 1.800000e+01 0.000000e+00 0.000000e+00 0.000000e+00 1.800000e+01" Properties=species:S:1:pos:R:3:force:R:3 energy=1.000618e-02 dipole="-4.536593e-02 -3.459727e-14 -1.401899e-14" pol="2.574662e+01 -4.722871e-10 -8.418952e-10 -4.722871e-10 1.200251e+01 -3.111930e-13 -8.418952e-10 -3.111930e-13 1.200251e+01" pbc="T T T"
O 1.164838e+00 6.333953e-12 -1.150528e-11 -4.469428e-01 -3.981439e-13 -2.270977e-13
C -4.378938e-03 5.737214e-12 -1.207772e-11 1.918985e+00 1.180350e-12 8.612817e-13
O -1.154108e+00 5.176399e-12 -1.265933e-11 -1.472152e+00 -7.799259e-13 -6.677058e-13
3
Lattice="1.800000e+01 0.000000e+00 0.000000e+00 0.000000e+00 1.800000e+01 0.000000e+00 0.000000e+00 0.000000e+00 1.800000e+01" Properties=species:S:1:pos:R:3:force:R:3 energy=6.039556e-04 dipole="-9.636064e-03 2.121962e-15 -1.368775e-14" pol="2.609160e+01 4.889153e-10 -2.404367e-10 4.889153e-10 1.209207e+01 -2.004362e-12 -2.404367e-10 -2.004362e-12 1.209207e+01" pbc="T T T"
O 1.170686e+00 6.624316e-12 -1.189949e-11 -6.033560e-01 -2.506287e-13 -4.761859e-13
C 1.198063e-03 5.996317e-12 -1.255511e-11 3.876829e-01 1.189645e-13 4.349306e-13
O -1.164112e+00 5.356502e-12 -1.317771e-11 2.156511e-01 1.706371e-13 4.103917e-14
3
Lattice="1.800000e+01 0.000000e+00 0.000000e+00 0.000000e+00 1.800000e+01 0.000000e+00 0.000000e+00 0.000000e+00 1.800000e+01" Properties=species:S:1:pos:R:3:force:R:3 energy=1.131267e-03 dipole="-2.339607e-02 -1.964612e-14 -1.223520e-14" pol="2.590488e+01 -4.024869e-10 -3.207720e-10 -4.024869e-10 1.204280e+01 7.461397e-13 -3.207720e-10 7.461397e-13 1.204280e+01" pbc="T T T"
O 1.167261e+00 6.963939e-12 -1.243314e-11 -4.154689e-01 -3.553020e-13 -1.331879e-13
C -9.426457e-04 6.296573e-12 -1.310407e-11 9.667608e-01 6.966458e-13 5.675233e-13
O -1.159052e+00 5.651464e-12 -1.377191e-11 -5.513546e-01 -4.001366e-13 -3.045287e-13
3
Lattice="1.800000e+01 0.000000e+00 0.000000e+00 0.000000e+00 1.800000e+01 0.000000e+00 0.000000e+00 0.000000e+00 1.800000e+01" Properties=species:S:1:pos:R:3:force:R:3 energy=5.866398e-04 dipole="-1.654746e-02 7.915714e-15 -2.953803e-14" pol="2.581747e+01 -5.098039e-10 1.163262e-10 -5.098039e-10 1.201874e+01 -2.849099e-12 1.163262e-10 -2.849099e-12 1.201874e+01" pbc="T T T"
O 1.164897e+00 7.325404e-12 -1.311168e-11 -6.095268e-02 4.817229e-14 -2.377034e-13
C 1.388784e-04 6.707258e-12 -1.376041e-11 6.920808e-01 1.740747e-13 7.844343e-13
O -1.157497e+00 6.060590e-12 -1.435789e-11 -6.311745e-01 -1.824270e-13 -5.126592e-13
3
Lattice="1.800000e+01 0.000000e+00 0.000000e+00 0.000000e+00 1.800000e+01 0.000000e+00 0.000000e+00 0.000000e+00 1.800000e+01" Properties=species:S:1:pos:R:3:force:R:3 energy=4.303770e-03 dipole="-1.033960e-02 -1.737485e-14 2.363149e-14" pol="2.623144e+01 -4.586506e-10 4.458922e-12 -4.586506e-10 1.212940e+01 5.092935e-13 4.458922e-12 5.092935e-13 1.212940e+01" pbc="T T T"
O 1.173867e+00 7.699905e-12 -1.377483e-11 -9.518501e-01 -5.310414e-13 -1.569089e-13
C 1.081246e-03 7.097290e-12 -1.428323e-11 4.078642e-01 4.245304e-13 -2.653374e-13
O -1.167203e+00 6.522911e-12 -1.485017e-11 5.439682e-01 1.389141e-13 4.824410e-13
3
Lattice="1.800000e+01 0.000000e+00 0.000000e+00 0.000000e+00 1.800000e+01 0.000000e+00 0.000000e+00 0.000000e+00 1.800000e+01" Properties=species:S:1:pos:R:3:force:R:3 energy=6.334599e-03 dipole="2.529426e-02 6.760861e-15 1.742361e-14" pol="2.564362e+01 4.805539e-10 -4.241433e-10 4.805539e-10 1.197223e+01 5.166695e-12 -4.241433e-10 5.166695e-12 1.197223e+01" pbc="T T T"
O 1.158450e+00 7.936751e-12 -1.413289e-11 1.292519e+00 5.558651e-13 5.680690e-13
C 6.645512e-03 7.393907e-12 -1.461325e-11 -1.084407e+00 -3.516104e-13 -5.847084e-13
O -1.155995e+00 6.857549e-12 -1.511430e-11 -2.080469e-01 -1.577557e-13 -9.478743e-14
3
Lattice="1.800000e+01 0.000000e+00 0.000000e+00 0.000000e+00 1.800000e+01 0.000000e+00 0.000000e+00 0.000000e+00 1.800000e+01" Properties=species:S:1:pos:R:3:force:R:3 energy=7.304994e-03 dipole="2.953063e-02 3.129407e-14 -2.242668e-14" pol="2.622558e+01 8.628018e-10 3.358698e-10 8.628018e-10 1.212955e+01 -2.900418e-12 3.358698e-10 -2.900418e-12 1.212955e+01" pbc="T T T"
O 1.171288e+00 8.046666e-12 -1.425977e-11 -1.314173e-01 9.920622e-14 -3.486360e-13
C 7.372810e-03 7.542777e-12 -1.477190e-11 -1.166667e+00 -7.891366e-13 1.200872e-13
O -1.169394e+00 6.992726e-12 -1.521572e-11 1.298134e+00 7.023697e-13 1.886963e-13
3
Lattice="1.800000e+01 0.000000e+00 0.000000e+00 0.000000e+00 1.800000e+01 0.000000e+00 0.000000e+00 0.000000e+00 1.800000e+01" Properties=species:S:1:pos:R:3:force:R:3 energy=3.654355e-03 dipole="-6.326875e-03 -1.645538e-14 3.320063e-14" pol="2.622021e+01 -4.098787e-10 7.252762e-11 -4.098787e-10 1.212627e+01 2.318974e-12 7.252762e-11 2.318974e-12 1.212627e+01" pbc="T T T"
O 1.173362e+00 8.140924e-12 -1.438335e-11 -8.476672e-01 -5.289784e-13 -1.167473e-13
C 1.696080e-03 7.610871e-12 -1.481128e-11 2.499488e-01 3.441437e-13 -4.659838e-13
O -1.167216e+00 7.112791e-12 -1.531270e-11 5.977073e-01 1.230561e-13 5.098660e-13
3
Lattice="1.800000e+01 0.000000e+00 0.000000e+00 0.000000e+00 1.800000e+01 0.000000e+00 0.000000e+00 0.000000e+00 1.800000e+01" Properties=species:S:1:pos:R:3:force:R:3 energy=3.335932e-03 dipole="-6.110558e-03 8.064530e-15 -1.627674e-14" pol="2.564896e+01 8.108640e-11 -2.623254e-10 8.108640e-11 1.197275e+01 -1.404811e-12 -2.623254e-10 -1.404811e-12 1.197275e+01" pbc="T T T"
O 1.160416e+00 8.672357e-12 -1.507280e-11 5.906358e-01 2.468800e-13 3.123928e-14
C 1.725436e-03 8.236576e-12 -1.536662e-11 2.616484e-01 3.351786e-14 2.938506e-13
O -1.154347e+00 7.785968e-12 -1.563411e-11 -8.523007e-01 -2.305892e-13 -3.046075e-13
3
Lattice="1.800000e+01 0.000000e+00 0.000000e+00 0.000000e+00 1.800000e+01 0.000000e+00 0.000000e+00 0.000000e+00 1.800000e+01" Properties=species:S:1:pos:R:3:force:R:3 energy=3.996431e-03 dipole="-1.329435e-02 1.786965e-14 -5.069329e-14" pol="2.621302e+01 -9.478264e-10 5.458379e-10 -9.478264e-10 1.212465e+01 1.438672e-12 5.458379e-10 1.438672e-12 1.212465e+01" pbc="T T T"
O 1.173579e+00 8.868070e-12 -1.536754e-11 -9.649577e-01 -1.724326e-13 -5.001254e-13
C 5.705217e-04 8.495746e-12 -1.557774e-11 5.258231e-01 -1.250955e-13 7.235796e-13
O -1.166654e+00 8.081600e-12 -1.570421e-11 4.391109e-01 3.125049e-13 -2.858515e-13
3
Lattice="1.800000e+01 0.000000e+00 0.000000e+00 0.000000e+00 1.800000e+01 0.000000e+00 0.000000e+00 0.000000e+00 1.800000e+01" Properties=species:S:1:pos:R:3:force:R:3 energy=1.613079e-03 dipole="1.331716e-03 -6.618629e-15 2.013565e-14" pol="2.570149e+01 -2.499279e-10 -7.664454e-10 -2.499279e-10 1.198694e+01 3.093063e-13 -7.664454e-10 3.093063e-13 1.198694e+01" pbc="T T T"
O 1.161174e+00 9.039044e-12 -1.567626e-11 6.095866e-01 6.429337e-14 2.410248e-13
C 2.879425e-03 8.739352e-12 -1.572570e-11 -5.657070e-02 9.361476e-14 -2.546032e-13
O -1.155987e+00 8.453337e-12 -1.581213e-11 -5.530121e-01 -1.797329e-13 1.105184e-13
3
Lattice="1.800000e+01 0.000000e+00 0.000000e+00 0.000000e+00 1.800000e+01 0.000000e+00 0.000000e+00 0.000000e+00 1.800000e+01" Properties=species:S:1:pos:R:3:force:R:3 energy=3.300780e-03 dipole="1.333629e-03 2.389923e-14 -4.358868e-14" pol="2.621419e+01 2.704432e-10 6.817616e-10 2.704432e-10 1.212461e+01 -2.556675e-12 6.817616e-10 -2.556675e-12 1.212461e+01" pbc="T T T"
O 1.172750e+00 9.123315e-12 -1.580961e-11 -6.828253e-01 1.191736e-13 -2.964245e-13
C 2.883185e-03 8.920862e-12 -1.587522e-11 -5.269765e-02 -3.516528e-13 6.942277e-13
O -1.167564e+00 8.668182e-12 -1.585231e-11 7.355253e-01 2.997153e-13 -3.180985e-13
3
Lattice="1.800000e+01 0.000000e+00 0.000000e+00 0.000000e+00 1.800000e+01 0.000000e+00 0.000000e+00 0.000000e+00 1.800000e+01" Properties=species:S:1:pos:R:3:force:R:3 energy=1.420340e-03 dipole="3.972017e-03 -2.197309e-14 3.249126e-14" pol="2.614512e+01 1.575612e-10 -6.393926e-10 1.575612e-10 1.210621e+01 -1.329894e-12 -6.393926e-10 -1.329894e-12 1.210621e+01" pbc="T T T"
O 1.171045e+00 9.209046e-12 -1.594373e-11 -4.627946e-01 -1.907879e-13 3.767834e-13
C 3.300244e-03 9.006878e-12 -1.588895e-11 -1.585794e-01 2.903382e-13 -6.369905e-13
O -1.166169e+00 8.847395e-12 -1.591933e-11 6.213823e-01 -1.352029e-13 3.009518e-13
3
Lattice="1.800000e+01 0.000000e+00 0.000000e+00 0.000000e+00 1.800000e+01 0.000000e+00 0.000000e+00 0.000000e+00 1.800000e+01" Properties=species:S:1:pos:R:3:force:R:3 energy=1.217428e-03 dipole="-1.957645e-02 -1.626694e-14 3.584113e-14" pol="2.605194e+01 4.170700e-10 2.869520e-10 4.170700e-10 1.208203e+01 2.393580e-12 2.869520e-10 2.393580e-12 1.208203e+01" pbc="T T T"
O 1.170322e+00 9.523104e-12 -1.634662e-11 -7.007739e-01 -2.190639e-13 3.217812e-13
C -4.026078e-04 9.443082e-12 -1.617892e-11 7.922354e-01 2.786182e-13 -5.722214e-13
O -1.162647e+00 9.392211e-12 -1.607505e-11 -9.150817e-02 -1.882727e-13 2.424974e-13
3
Lattice="1.800000e+01 0.000000e+00 0.000000e+00 0.000000e+00 1.800000e+01 0.000000e+00 0.000000e+00 0.000000e+00 1.800000e+01" Properties=species:S:1:pos:R:3:force:R:3 energy=6.754475e-03 dipole="-2.999308e-02 -1.427673e-14 4.105989e-14" pol="2.620413e+01 -6.180902e-10 4.780382e-10 -6.180902e-10 1.212387e+01 2.838274e-13 4.780382e-10 2.838274e-13 1.212387e+01" pbc="T T T"
O 1.174325e+00 9.742744e-12 -1.662484e-11 -1.256952e+00 -1.627395e-13 5.604886e-13
C -2.056245e-03 9.702751e-12 -1.635418e-11 1.188556e+00 2.475851e-13 -8.897278e-13
O -1.165392e+00 9.691816e-12 -1.616133e-11 6.834384e-02 -1.331080e-13 3.081607e-13
3
Lattice="1.800000e+01 0.000000e+00 0.000000e+00 0.000000e+00 1.800000e+01 0.000000e+00 0.000000e+00 0.000000e+00 1.800000e+01" Properties=species:S:1:pos:R:3:force:R:3 energy=-4.399738e-04 dipole="1.352846e-02 1.597071e-14 -4.069840e-14" pol="2.588907e+01 5.073696e-10 8.783634e-11 5.073696e-10 1.203788e+01 -3.858470e-13 8.783634e-11 -3.858470e-13 1.203788e+01" pbc="T T T"
O 1.164726e+00 1.009666e-11 -1.705550e-11 3.793004e-01 1.346949e-13 -3.314196e-13
C 4.818446e-03 1.014130e-11 -1.671136e-11 -5.600957e-01 -2.447723e-13 6.300430e-13
O -1.160924e+00 1.015045e-11 -1.629482e-11 1.808328e-01 1.289577e-13 -2.572038e-13
3
Lattice="1.800000e+01 0.000000e+00 0.000000e+00 0.000000e+00 1.800000e+01 0.000000e+00 0.000000e+00 0.000000e+00 1.800000e+01" Properties=species:S:1:pos:R:3:force:R:3 energy=6.347543e-03 dipole="-2.939571e-02 1.928456e-14 -9.139111e-15" pol="2.567584e+01 3.791356e-12 -7.782632e-10 3.791356e-12 1.198134e+01 3.083172e-12 -7.782632e-10 3.083172e-12 1.198134e+01" pbc="T T T"
O 1.162380e+00 1.063071e-11 -1.782470e-11 4.264053e-02 9.320157e-14 -2.492460e-13
C -1.863822e-03 1.086533e-11 -1.729019e-11 1.254755e+00 -4.609896e-13 -2.699548e-13
O -1.153503e+00 1.107103e-11 -1.670838e-11 -1.297472e+00 3.362208e-13 4.567617e-13
3
Lattice="1.800000e+01 0.000000e+00 0.000000e+00 0.000000e+00 1.800000e+01 0.000000e+00 0.000000e+00 0.000000e+00 1.800000e+01" Properties=species:S:1:pos:R:3:force:R:3 energy=3.740065e-03 dipole="1.253026e-02 -1.615185e-14 7.204129e-15" pol="2.565372e+01 -1.184055e-10 4.853987e-10 -1.184055e-10 1.197422e+01 -1.684226e-12 4.853987e-10 -1.684226e-12 1.197422e+01" pbc="T T T"
O 1.159476e+00 1.084873e-11 -1.823802e-11 9.798121e-01 -3.969048e-13 -3.778446e-13
C 4.677612e-03 1.118638e-11 -1.758813e-11 -5.362360e-01 3.462900e-13 6.355459e-14
O -1.155490e+00 1.155175e-11 -1.696320e-11 -4.435425e-01 5.764429e-14 3.387670e-13
3
Lattice="1.800000e+01 0.000000e+00 0.000000e+00 0.000000e+00 1.800000e+01 0.000000e+00 0.000000e+00 0.000000e+00 1.800000e+01" Properties=species:S:1:pos:R:3:force:R:3 energy=3.683417e-03 dipole="-2.146619e-02 9.875984e-15 2.651342e-14" pol="2.616013e+01 3.799052e-10 -3.992007e-10 3.799052e-10 1.211115e+01 1.284022e-12 -3.992007e-10 1.284022e-12 1.211115e+01" pbc="T T T"
O 1.172909e+00 1.092979e-11 -1.841775e-11 -9.952836e-01 3.597220e-13 6.476515e-13
C -6.626795e-04 1.133507e-11 -1.772823e-11 8.556188e-01 -3.885823e-13 -7.025326e-13
O -1.164908e+00 1.172925e-11 -1.707137e-11 1.396222e-01 -3.586861e-14 -7.197193e-15
3
Lattice="1.800000e+01 0.000000e+00 0.000000e+00 0.000000e+00 1.800000e+01 0.000000e+00 0.000000e+00 0.000000e+00 1.800000e+01" Properties=species:S:1:pos:R:3:force:R:3 energy=-3.617577e-04 dipole="3.206020e-03 1.879911e-15 -2.957211e-14" pol="2.579938e+01 1.208547e-10 -2.462413e-10 1.208547e-10 1.201341e+01 -7.501468e-13 -2.462413e-10 -7.501468e-13 1.201341e+01" pbc="T T T"
O 1.163344e+00 1.129837e-11 -1.905392e-11 3.926893e-01 -1.920785e-13 -4.493097e-13
C 3.229037e-03 1.182995e-11 -1.836208e-11 -1.343883e-01 -1.263369e-14 4.867430e-13
O -1.158265e+00 1.235458e-11 -1.761301e-11 -2.582918e-01 2.150146e-13 -7.374613e-14
3
Lattice="1.800000e+01 0.000000e+00 0.000000e+00 0.000000e+00 1.800000e+01 0.000000e+00 0.000000e+00 0.000000e+00 1.800000e+01" Properties=species:S:1:pos:R:3:force:R:3 energy=4.027187e-03 dipole="-2.488225e-02 5.316915e-15 -3.183347e-15" pol="2.614689e+01 3.549824e-10 1.364773e-10 3.549824e-10 1.210795e+01 2.430595e-12 1.364773e-10 2.430595e-12 1.210795e+01" pbc="T T T"
O 1.172798e+00 1.138778e-11 -1.925282e-11 -1.028304e+00 4.822698e-13 5.224358e-13
C -1.203436e-03 1.196926e-11 -1.855485e-11 9.937699e-01 -4.357532e-13 -3.362242e-13
O -1.164400e+00 1.255495e-11 -1.782296e-11 3.448380e-02 -1.006120e-13 -1.667036e-13
3
Lattice="1.800000e+01 0.000000e+00 0.000000e+00 0.000000e+00 1.800000e+01 0.000000e+00 0.000000e+00 0.000000e+00 1.800000e+01" Properties=species:S:1:pos:R:3:force:R:3 energy=3.926818e-03 dipole="1.596940e-02 -1.670812e-14 1.414280e-14" pol="2.566222e+01 -1.829957e-10 1.114978e-10 -1.829957e-10 1.197668e+01 3.411681e-12 1.114978e-10 3.411681e-12 1.197668e+01" pbc="T T T"
O 1.159458e+00 1.145447e-11 -1.939438e-11 1.032792e+00 -5.600776e-13 -3.480770e-13
C 5.210459e-03 1.206200e-11 -1.867517e-11 -6.826503e-01 4.584869e-13 4.046997e-14
O -1.155882e+00 1.269031e-11 -1.799879e-11 -3.500990e-01 1.325354e-13 4.615960e-13
3
Lattice="1.800000e+01 0.000000e+00 0.000000e+00 0.000000e+00 1.800000e+01 0.000000e+00 0.000000e+00 0.000000e+00 1.800000e+01" Properties=species:S:1:pos:R:3:force:R:3 energy=4.349920e-03 dipole="1.147048e-02 2.860844e-15 2.052016e-15" pol="2.622975e+01 5.817779e-10 -2.200693e-10 5.817779e-10 1.212901e+01 -1.761283e-12 -2.200693e-10 -1.761283e-12 1.212901e+01" pbc="T T T"
O 1.172532e+00 1.151115e-11 -1.956263e-11 -5.169300e-01 3.708117e-13 3.844220e-13
C 4.532843e-03 1.219000e-11 -1.886909e-11 -4.525941e-01 1.313188e-13 1.049430e-13
O -1.168458e+00 1.285472e-11 -1.819207e-11 9.695437e-01 -4.671621e-13 -4.323410e-13
3
Lattice="1.800000e+01 0.000000e+00 0.000000e+00 0.000000e+00 1.800000e+01 0.000000e+00 0.000000e+00 0.000000e+00 1.800000e+01" Properties=species:S:1:pos:R:3:force:R:3 energy=2.482909e-03 dipole="-2.786618e-02 -2.393539e-17 3.422001e-14" pol="2.585179e+01 -3.843858e-10 4.919531e-10 -3.843858e-10 1.202888e+01 2.801086e-12 4.919531e-10 2.801086e-12 1.202888e+01" pbc="T T T"
O 1.166273e+00 1.186889e-11 -2.020113e-11 -3.711177e-01 1.308002e-13 3.093324e-13
C -1.669112e-03 1.260354e-11 -1.964609e-11 1.160319e+00 -5.035944e-13 -8.762024e-13
O -1.157606e+00 1.336665e-11 -1.913747e-11 -7.892761e-01 3.869128e-13 4.575584e-13
3
Lattice="1.800000e+01 0.000000e+00 0.000000e+00 0.000000e+00 1.800000e+01 0.000000e+00 0.000000e+00 0.000000e+00 1.800000e+01" Properties=species:S:1:pos:R:3:force:R:3 energy=-1.034140e-03 dipole="9.036231e-04 1.752046e-14 -2.821721e-14" pol="2.585393e+01 -6.623126e-10 8.082813e-10 -6.623126e-10 1.202813e+01 -2.998029e-12 8.082813e-10 -2.998029e-12 1.202813e+01" pbc="T T T"
O 1.164669e+00 1.221026e-11 -2.067434e-11 2.033822e-01 1.596472e-14 -2.871400e-13
C 2.821005e-03 1.291476e-11 -2.032980e-11 -3.754349e-02 -2.552181e-13 3.766494e-13
O -1.159416e+00 1.358057e-11 -1.992988e-11 -1.658361e-01 2.918535e-13 -1.521078e-13
3
Lattice="1.800000e+01 0.000000e+00 0.000000e+00 0.000000e+00 1.800000e+01 0.000000e+00 0.000000e+00 0.000000e+00 1.800000e+01" Properties=species:S:1:pos:R:3:force:R:3 energy=7.248020e-04 dipole="2.103160e-02 -3.845078e-15 -5.884165e-16" pol="2.588832e+01 -7.369510e-11 7.695292e-11 -7.369510e-11 1.203815e+01 1.355666e-12 7.695292e-11 1.355666e-12 1.203815e+01" pbc="T T T"
O 1.164226e+00 1.240995e-11 -2.090559e-11 5.430421e-01 -2.313514e-13 -4.920830e-14
C 5.971762e-03 1.304383e-11 -2.064384e-11 -8.710129e-01 3.613377e-13 7.590304e-14
O -1.161353e+00 1.366410e-11 -2.038905e-11 3.280281e-01 -8.616830e-14 -2.829007e-14
3
Lattice="1.800000e+01 0.000000e+00 0.000000e+00 0.000000e+00 1.800000e+01 0.000000e+00 0.000000e+00 0.000000e+00 1.800000e+01" Properties=species:S:1:pos:R:3:force:R:3 energy=1.051935e-03 dipole="2.268858e-02 1.274570e-14 -3.504454e-14" pol="2.597263e+01 -6.553971e-10 6.246393e-10 -6.553971e-10 1.206099e+01 -3.400055e-12 6.246393e-10 -3.400055e-12 1.206099e+01" pbc="T T T"
O 1.166022e+00 1.268330e-11 -2.120490e-11 3.604391e-01 7.569115e-14 -3.121810e-13
C 6.236993e-03 1.324075e-11 -2.114164e-11 -9.285995e-01 3.979963e-14 5.691100e-13
O -1.163355e+00 1.375097e-11 -2.101058e-11 5.682187e-01 -6.632063e-14 -2.691474e-13
3
Lattice="1.800000e+01 0.000000e+00 0.000000e+00 0.000000e+00 1.800000e+01 0.000000e+00 0.000000e+00 0.000000e+00 1.800000e+01" Properties=species:S:1:pos:R:3:force:R:3 energy=9.252422e-03 dipole="4.472740e-02 3.814962e-15 -1.823075e-14" pol="2.576956e+01 -2.120892e-10 -5.332072e-10 -2.120892e-10 1.200866e+01 3.555150e-12 -5.332072e-10 3.555150e-12 1.200866e+01" pbc="T T T"
O 1.160058e+00 1.331818e-11 -2.205208e-11 1.394312e+00 -1.922679e-13 2.695215e-14
C 9.673933e-03 1.360163e-11 -2.226631e-11 -1.885812e+00 1.865832e-13 8.213841e-14
O -1.159935e+00 1.386323e-11 -2.242942e-11 4.916090e-01 -1.723113e-14 -1.949182e-13
3
Lattice="1.800000e+01 0.000000e+00 0.000000e+00 0.000000e+00 1.800000e+01 0.000000e+00 0.000000e+00 0.000000e+00 1.800000e+01" Properties=species:S:1:pos:R:3:force:R:3 energy=-1.133467e-03 dipole="-4.197579e-03 -2.507411e-14 2.567676e-14" pol="2.587937e+01 -2.100002e-10 -4.153239e-10 -2.100002e-10 1.203499e+01 1.626407e-12 -4.153239e-10 1.626407e-12 1.203499e+01" pbc="T T T"
O 1.165587e+00 1.418120e-11 -2.319174e-11 3.291485e-02 -2.282385e-13 2.247884e-13
C 2.064683e-03 1.400190e-11 -2.376581e-11 1.739879e-01 4.568929e-13 -3.264976e-13
O -1.159647e+00 1.387897e-11 -2.439638e-11 -2.069146e-01 -2.324449e-13 7.426465e-14
3
Lattice="1.800000e+01 0.000000e+00 0.000000e+00 0.000000e+00 1.800000e+01 0.000000e+00 0.000000e+00 0.000000e+00 1.800000e+01" Properties=species:S:1:pos:R:3:force:R:3 energy=6.189785e-03 dipole="2.416338e-02 2.259169e-14 -2.901024e-14" pol="2.622832e+01 1.412591e-10 2.090276e-10 1.412591e-10 1.212964e+01 3.586967e-12 2.090276e-10 3.586967e-12 1.212964e+01" pbc="T T T"
O 1.171718e+00 1.437027e-11 -2.341241e-11 -2.514788e-01 9.184508e-15 -4.464043e-13
C 6.550672e-03 1.412990e-11 -2.412596e-11 -9.540122e-01 -4.601225e-13 1.350811e-13
O -1.169133e+00 1.385028e-11 -2.475947e-11 1.205532e+00 4.123455e-13 3.753066e-13
3
Lattice="1.800000e+01 0.000000e+00 0.000000e+00 0.000000e+00 1.800000e+01 0.000000e+00 0.000000e+00 0.000000e+00 1.800000e+01" Properties=species:S:1:pos:R:3:force:R:3 energy=1.356282e-03 dipole="-7.442527e-03 -2.757214e-15 3.498471e-14" pol="2.613535e+01 5.070418e-10 -6.002761e-11 5.070418e-10 1.210368e+01 -2.496147e-12 -6.002761e-11 -2.496147e-12 1.210368e+01" pbc="T T T"
O 1.171555e+00 1.459446e-11 -2.371240e-11 -6.661474e-01 -1.974363e-13 -1.700678e-13
C 1.554707e-03 1.422052e-11 -2.439609e-11 2.975751e-01 1.193891e-13 -3.928080e-13
O -1.165215e+00 1.384949e-11 -2.515727e-11 3.685564e-01 9.117053e-15 6.420021e-13
3
Lattice="1.800000e+01 0.000000e+00 0.000000e+00 0.000000e+00 1.800000e+01 0.000000e+00 0.000000e+00 0.000000e+00 1.800000e+01" Properties=species:S:1:pos:R:3:force:R:3 energy=7.778775e-03 dipole="3.021329e-02 3.682086e-14 1.373950e-14" pol="2.563885e+01 -1.119018e-10 3.648520e-10 -1.119018e-10 1.197136e+01 -3.273954e-14 3.648520e-10 -3.273954e-14 1.197136e+01" pbc="T T T"
O 1.158059e+00 1.469020e-11 -2.387392e-11 1.417875e+00 5.737735e-13 8.432035e-13
C 7.433416e-03 1.429890e-11 -2.459921e-11 -1.296423e+00 -7.148601e-13 -6.904273e-13
O -1.156134e+00 1.386134e-11 -2.532119e-11 -1.213765e-01 1.233317e-13 -1.586722e-13
3
Lattice="1.800000e+01 0.000000e+00 0.000000e+00 0.000000e+00 1.800000e+01 0.000000e+00 0.000000e+00 0.000000e+00 1.800000e+01" Properties=species:S:1:pos:R:3:force:R:3 energy=6.010863e-03 dipole="3.334858e-02 2.975641e-14 5.865786e-14" pol="2.614204e+01 2.036141e-10 -6.894736e-10 2.036141e-10 1.210769e+01 1.022775e-12 -6.894736e-10 1.022775e-12 1.210769e+01" pbc="T T T"
O 1.169191e+00 1.503875e-11 -2.462227e-11 1.593618e-01 1.132934e-13 3.295830e-13
C 7.979872e-03 1.452563e-11 -2.521862e-11 -1.333382e+00 -7.857570e-13 -1.284536e-12
O -1.167711e+00 1.398062e-11 -2.589801e-11 1.174086e+00 6.472120e-13 9.372460e-13
3
Lattice="1.800000e+01 0.000000e+00 0.000000e+00 0.000000e+00 1.800000e+01 0.000000e+00 0.000000e+00 0.000000e+00 1.800000e+01" Properties=species:S:1:pos:R:3:force:R:3 energy=-8.068532e-04 dipole="-4.947519e-03 2.289287e-14 1.373553e-14" pol="2.584072e+01 3.407263e-10 -6.810913e-12 3.407263e-10 1.202459e+01 -1.132890e-12 -6.810913e-12 -1.132890e-12 1.202459e+01" pbc="T T T"
O 1.164728e+00 1.537377e-11 -2.531656e-11 1.160072e-01 2.355288e-13 1.496354e-13
C 1.921051e-03 1.477030e-11 -2.576158e-11 2.061975e-01 -2.104536e-13 -1.171766e-13
O -1.158755e+00 1.411685e-11 -2.623237e-11 -3.222188e-01 1.530389e-14 -2.302444e-14
3
Lattice="1.800000e+01 0.000000e+00 0.000000e+00 0.000000e+00 1.800000e+01 0.000000e+00 0.000000e+00 0.000000e+00 1.800000e+01" Properties=species:S:1:pos:R:3:force:R:3 energy=7.542528e-03 dipole="-2.869812e-02 -3.331684e-14 1.060974e-14" pol="2.563365e+01 2.988217e-10 2.326510e-10 2.988217e-10 1.196981e+01 -1.992872e-12 2.326510e-10 -1.992872e-12 1.196981e+01" pbc="T T T"
O 1.161341e+00 1.564817e-11 -2.590653e-11 1.652075e-01 -4.019514e-14 1.219311e-13
C -1.787650e-03 1.496019e-11 -2.614834e-11 1.232229e+00 9.959007e-13 5.340496e-14
O -1.152626e+00 1.431510e-11 -2.641996e-11 -1.397508e+00 -9.601494e-13 -2.047991e-13
3
Lattice="1.800000e+01 0.000000e+00 0.000000e+00 0.000000e+00 1.800000e+01 0.000000e+00 0.000000e+00 0.000000e+00 1.800000e+01" Properties=species:S:1:pos:R:3:force:R:3 energy=1.196880e-02 dipole="-4.322361e-02 -5.526512e-14 -2.745439e-14" pol="2.624103e+01 -2.531495e-10 1.501161e-09 -2.531495e-10 1.213590e+01 -2.599359e-12 1.501161e-09 -2.599359e-12 1.213590e+01" pbc="T T T"
O 1.175847e+00 1.578498e-11 -2.621352e-11 -1.579597e+00 -1.215350e-12 -3.862155e-13
C -4.165589e-03 1.507420e-11 -2.637248e-11 1.705414e+00 1.451348e-12 5.890074e-13
O -1.165361e+00 1.443528e-11 -2.647528e-11 -1.258820e-01 -3.155064e-13 -2.440067e-13
3
Lattice="1.800000e+01 0.000000e+00 0.000000e+00 0.000000e+00 1.800000e+01 0.000000e+00 0.000000e+00 0.000000e+00 1.800000e+01" Properties=species:S:1:pos:R:3:force:R:3 energy=-1.152984e-03 dipole="5.734622e-03 1.595834e-14 3.075466e-14" pol="2.590026e+01 -1.417749e-10 -1.794947e-10 -1.417749e-10 1.204063e+01 -5.003902e-12 -1.794947e-10 -5.003902e-12 1.204063e+01" pbc="T T T"
O 1.165424e+00 1.582586e-11 -2.637653e-11 1.855724e-01 1.927219e-13 3.028712e-13
C 3.572748e-03 1.517585e-11 -2.642000e-11 -2.370090e-01 -2.908338e-13 -4.668769e-13
O -1.160753e+00 1.449931e-11 -2.652737e-11 5.145258e-02 1.214859e-13 2.309173e-13
3
Lattice="1.800000e+01 0.000000e+00 0.000000e+00 0.000000e+00 1.800000e+01 0.000000e+00 0.000000e+00 0.000000e+00 1.800000e+01" Properties=species:S:1:pos:R:3:force:R:3 energy=3.803467e-03 dipole="-4.728697e-03 -4.356930e-14 3.046413e-15" pol="2.622702e+01 4.024034e-10 -3.213315e-10 4.024034e-10 1.212805e+01 -1.853556e-12 -3.213315e-10 -1.853556e-12 1.212805e+01" pbc="T T T"
O 1.173403e+00 1.630238e-11 -2.739982e-11 -8.327349e-01 -7.526827e-13 2.773040e-13
C 1.931652e-03 1.569811e-11 -2.708833e-11 1.866236e-01 8.067974e-13 -8.530106e-14
O -1.167482e+00 1.518228e-11 -2.678054e-11 6.461031e-01 -5.148267e-14 -1.198232e-13
3
Lattice="1.800000e+01 0.000000e+00 0.000000e+00 0.000000e+00 1.800000e+01 0.000000e+00 0.000000e+00 0.000000e+00 1.800000e+01" Properties=species:S:1:pos:R:3:force:R:3 energy=3.989802e-03 dipole="-1.625433e-02 -4.982262e-14 2.455322e-14" pol="2.620090e+01 -5.328151e-11 -7.558715e-11 -5.328151e-11 1.212161e+01 -1.723266e-12 -7.558715e-11 -1.723266e-12 1.212161e+01" pbc="T T T"
O 1.173494e+00 1.656342e-11 -2.789216e-11 -9.927948e-01 -8.930316e-13 5.585612e-13
C 1.216342e-04 1.601456e-11 -2.739801e-11 6.440505e-01 1.006274e-12 -5.607486e-13
O -1.166182e+00 1.556075e-11 -2.694334e-11 3.487145e-01 -2.176435e-13 5.160172e-14
3
Lattice="1.800000e+01 0.000000e+00 0.000000e+00 0.000000e+00 1.800000e+01 0.000000e+00 0.000000e+00 0.000000e+00 1.800000e+01" Properties=species:S:1:pos:R:3:force:R:3 energy=2.886775e-03 dipole="1.889388e-02 -3.496947e-14 2.329221e-15" pol="2.614580e+01 -1.714416e-10 1.804374e-10 -1.714416e-10 1.210710e+01 1.833869e-12 1.804374e-10 1.833869e-12 1.210710e+01" pbc="T T T"
O 1.170182e+00 1.686673e-11 -2.838602e-11 -1.579792e-01 -4.019855e-13 1.840071e-13
C 5.689294e-03 1.639307e-11 -2.776183e-11 -7.545440e-01 4.676626e-13 1.649188e-13
O -1.167009e+00 1.600488e-11 -2.715882e-11 9.125619e-01 1.392533e-15 -3.639751e-13
3
Lattice="1.800000e+01 0.000000e+00 0.000000e+00 0.000000e+00 1.800000e+01 0.000000e+00 0.000000e+00 0.000000e+00 1.800000e+01" Properties=species:S:1:pos:R:3:force:R:3 energy=-5.961538e-04 dipole="-6.712296e-03 3.023394e-14 -3.747309e-14" pol="2.602431e+01 -2.727554e-11 -2.559981e-11 -2.727554e-11 1.207396e+01 1.751898e-12 -2.559981e-11 1.751898e-12 1.207396e+01" pbc="T T T"
O 1.169006e+00 1.712924e-11 -2.891847e-11 -3.808166e-01 1.644817e-13 -5.124551e-14
C 1.664870e-03 1.689612e-11 -2.822744e-11 2.726116e-01 -4.440597e-13 4.066875e-13
O -1.162771e+00 1.659213e-11 -2.745544e-11 1.081881e-01 2.398455e-13 -3.130502e-13
3
Lattice="1.800000e+01 0.000000e+00 0.000000e+00 0.000000e+00 1.800000e+01 0.000000e+00 0.000000e+00 0.000000e+00 1.800000e+01" Properties=species:S:1:pos:R:3:force:R:3 energy=6.026700e-03 dipole="2.791188e-02 -1.076297e-14 -4.291422e-14" pol="2.567335e+01 -3.164317e-11 -8.902894e-11 -3.164317e-11 1.198053e+01 -7.775105e-15 -8.902894e-11 -7.775105e-15 1.198053e+01" pbc="T T T"
O 1.158986e+00 1.765290e-11 -2.966052e-11 1.270500e+00 -8.846481e-14 -1.024846e-12
C 7.079201e-03 1.763984e-11 -2.895925e-11 -1.191759e+00 1.660797e-13 1.135259e-12
O -1.156795e+00 1.764555e-11 -2.819622e-11 -7.866814e-02 -8.125661e-14 -1.260064e-13
3
Lattice="1.800000e+01 0.000000e+00 0.000000e+00 0.000000e+00 1.800000e+01 0.000000e+00 0.000000e+00 0.000000e+00 1.800000e+01" Properties=species:S:1:pos:R:3:force:R:3 energy=-5.257445e-04 dipole="-9.499258e-03 1.828150e-15 4.876925e-14" pol="2.584234e+01 8.974057e-10 -2.930466e-10 8.974057e-10 1.202513e+01 -2.550401e-12 -2.930466e-10 -2.550401e-12 1.202513e+01" pbc="T T T"
O 1.165056e+00 1.786510e-11 -2.989270e-11 1.861968e-02 7.207369e-15 3.497526e-13
C 1.236980e-03 1.794867e-11 -2.921053e-11 3.958457e-01 -5.731178e-14 -7.999817e-13
O -1.158491e+00 1.802577e-11 -2.860764e-11 -4.144923e-01 6.874180e-14 5.357788e-13
3
Lattice="1.800000e+01 0.000000e+00 0.000000e+00 0.000000e+00 1.800000e+01 0.000000e+00 0.000000e+00 0.000000e+00 1.800000e+01" Properties=species:S:1:pos:R:3:force:R:3 energy=6.714070e-03 dipole="3.490779e-02 -4.887084e-14 -3.098596e-15" pol="2.572217e+01 6.290549e-11 1.208822e-09 6.290549e-11 1.199450e+01 2.047443e-12 1.208822e-09 2.047443e-12 1.199450e+01" pbc="T T T"
O 1.159639e+00 1.807137e-11 -3.019890e-11 1.296788e+00 -5.590949e-13 -4.461414e-13
C 8.159492e-03 1.832225e-11 -2.971890e-11 -1.480756e+00 8.197506e-13 4.704154e-13
O -1.158306e+00 1.864552e-11 -2.925557e-11 1.840581e-01 -3.277722e-13 8.073991e-14
3
Lattice="1.800000e+01 0.000000e+00 0.000000e+00 0.000000e+00 1.800000e+01 0.000000e+00 0.000000e+00 0.000000e+00 1.800000e+01" Properties=species:S:1:pos:R:3:force:R:3 energy=3.581458e-03 dipole="-7.615195e-03 -2.690098e-14 8.806650e-17" pol="2.564447e+01 3.481689e-10 9.945977e-11 3.481689e-10 1.197156e+01 -3.047303e-12 9.945977e-11 -3.047303e-12 1.197156e+01" pbc="T T T"
O 1.160420e+00 1.822140e-11 -3.048489e-11 5.707880e-01 -4.097419e-13 -1.343055e-13
C 1.511222e-03 1.863745e-11 -3.017991e-11 3.262904e-01 2.973657e-13 -1.302974e-13
O -1.154135e+00 1.911753e-11 -2.987884e-11 -8.970989e-01 1.790149e-13 2.129962e-13
3
Lattice="1.800000e+01 0.000000e+00 0.000000e+00 0.000000e+00 1.800000e+01 0.000000e+00 0.000000e+00 0.000000e+00 1.800000e+01" Properties=species:S:1:pos:R:3:force:R:3 energy=5.426937e-03 dipole="-2.665469e-02 4.115024e-14 2.613376e-14" pol="2.568273e+01 -3.602126e-10 3.976870e-10 -3.602126e-10 1.198297e+01 2.634925e-12 3.976870e-10 2.634925e-12 1.198297e+01" pbc="T T T"
O 1.162361e+00 1.825854e-11 -3.056283e-11 7.978149e-02 3.014424e-13 7.373882e-14
C -1.462358e-03 1.876757e-11 -3.029511e-11 1.136524e+00 -8.796687e-13 -5.304477e-13
O -1.153855e+00 1.921008e-11 -3.007025e-11 -1.216375e+00 7.582488e-13 4.439162e-13
3
Lattice="1.800000e+01 0.000000e+00 0.000000e+00 0.000000e+00 1.800000e+01 0.000000e+00 0.000000e+00 0.000000e+00 1.800000e+01" Properties=species:S:1:pos:R:3:force:R:3 energy=6.012634e-04 dipole="-1.429790e-02 1.298835e-14 -4.636865e-14" pol="2.606284e+01 1.099682e-10 5.822229e-10 1.099682e-10 1.208459e+01 -3.433841e-13 5.822229e-10 -3.433841e-13 1.208459e+01" pbc="T T T"
O 1.170277e+00 1.834074e-11 -3.064935e-11 -6.248145e-01 3.311553e-13 -2.532728e-13
C 4.356169e-04 1.886387e-11 -3.052909e-11 5.776405e-01 -3.800947e-13 6.339841e-13
O -1.163210e+00 1.937060e-11 -3.031452e-11 4.714007e-02 6.620595e-14 -3.775535e-13
3
Lattice="1.800000e+01 0.000000e+00 0.000000e+00 0.000000e+00 1.800000e+01 0.000000e+00 0.000000e+00 0.000000e+00 1.800000e+01" Properties=species:S:1:pos:R:3:force:R:3 energy=7.452789e-03 dipole="4.063281e-02 9.304387e-15 5.432048e-14" pol="2.609981e+01 1.156018e-10 -1.884912e-10 1.156018e-10 1.209744e+01 5.125878e-12 -1.884912e-10 5.125878e-12 1.209744e+01" pbc="T T T"
O 1.167734e+00 1.855969e-11 -3.103985e-11 4.265252e-01 6.461387e-14 4.362138e-13
C 9.081990e-03 1.919834e-11 -3.100367e-11 -1.635055e+00 2.936862e-13 -7.649916e-13
O -1.167192e+00 1.977654e-11 -3.106885e-11 1.208614e+00 -2.850210e-13 3.085219e-13
3
Lattice="1.800000e+01 0.000000e+00 0.000000e+00 0.000000e+00 1.800000e+01 0.000000e+00 0.000000e+00 0.000000e+00 1.800000e+01" Properties=species:S:1:pos:R:3:force:R:3 energy=7.902719e-04 dipole="1.416844e-02 -5.886982e-14 -3.253114e-14" pol="2.607573e+01 8.970133e-10 -2.889161e-10 8.970133e-10 1.208804e+01 -2.077597e-13 -2.889161e-10 -2.077597e-13 1.208804e+01" pbc="T T T"
O 1.168869e+00 1.897306e-11 -3.150760e-11 -8.213196e-02 -3.314408e-13 -3.514569e-13
C 4.906149e-03 1.960402e-11 -3.184579e-11 -5.713688e-01 1.099178e-12 4.624285e-13
O -1.165198e+00 2.034269e-11 -3.210793e-11 6.535338e-01 -7.604010e-13 -1.360321e-13
3
Lattice="1.800000e+01 0.000000e+00 0.000000e+00 0.000000e+00 1.800000e+01 0.000000e+00 0.000000e+00 0.000000e+00 1.800000e+01" Properties=species:S:1:pos:R:3:force:R:3 energy=1.169515e-02 dipole="-4.267696e-02 7.159241e-14 3.764632e-14" pol="2.623867e+01 -3.097814e-10 -2.562432e-10 -3.097814e-10 1.213516e+01 -6.043930e-13 -2.562432e-10 -6.043930e-13 1.213516e+01" pbc="T T T"
O 1.175766e+00 1.902356e-11 -3.160539e-11 -1.564581e+00 1.311832e-12 -1.144423e-14
C -4.078606e-03 1.975700e-11 -3.190526e-11 1.684337e+00 -1.760646e-12 -3.317719e-13
O -1.165345e+00 2.038452e-11 -3.230618e-11 -1.198218e-01 3.772879e-13 2.732780e-13
3
Lattice="1.800000e+01 0.000000e+00 0.000000e+00 0.000000e+00 1.800000e+01 0.000000e+00 0.000000e+00 0.000000e+00 1.800000e+01" Properties=species:S:1:pos:R:3:force:R:3 energy=8.365170e-03 dipole="3.606007e-02 1.664595e-15 -3.750979e-15" pol="2.567634e+01 8.928399e-10 6.774631e-10 8.928399e-10 1.198217e+01 -2.162465e-12 6.774631e-10 -2.162465e-12 1.198217e+01" pbc="T T T"
O 1.158543e+00 -3.431877e-15 -2.052529e-14 1.449119e+00 -7.225560e-14 -6.949637e-14
C 8.348635e-03 -1.721613e-15 -3.797551e-15 -1.539608e+00 8.079398e-15 1.670938e-14
O -1.157308e+00 -1.104442e-15 1.302407e-14 9.057924e-02 -4.078740e-14 -4.078101e-14
3
Lattice="1.800000e+01 0.000000e+00 0.000000e+00 0.000000e+00 1.800000e+01 0.000000e+00 0.000000e+00 0.000000e+00 1.800000e+01" Properties=species:S:1:pos:R:3:force:R:3 energy=1.275119e-03 dipole="-6.198680e-03 -2.597939e-15 -8.877279e-16" pol="2.613497e+01 -3.039684e-11 -3.869351e-10 -3.039684e-11 1.210355e+01 -1.962223e-12 -3.869351e-10 -1.962223e-12 1.210355e+01" pbc="T T T"
O 1.171473e+00 -6.563184e-15 -3.382054e-14 -6.407705e-01 1.327230e-14 -3.326110e-14
C 1.749800e-03 -3.228037e-15 -9.555763e-15 2.478488e-01 1.965223e-14 -2.733587e-14
O -1.165282e+00 3.715933e-16 1.444445e-14 3.929084e-01 -3.764097e-14 -3.185225e-14
3
Lattice="1.800000e+01 0.000000e+00 0.000000e+00 0.000000e+00 1.800000e+01 0.000000e+00 0.000000e+00 0.000000e+00 1.800000e+01" Properties=species:S:1:pos:R:3:force:R:3 energy=5.111017e-03 dipole="-2.914387e-02 -6.282578e-16 8.833847e-15" pol="2.571801e+01 9.310650e-11 -4.313025e-10 9.310650e-11 1.199277e+01 1.427549e-13 -4.313025e-10 1.427549e-13 1.199277e+01" pbc="T T T"
O 1.163326e+00 -4.088442e-13 -6.398449e-13 -6.001100e-02 -2.915242e-14 4.777454e-15
C -1.830669e-03 -1.153299e-13 -2.274682e-13 1.236638e+00 -2.549007e-13 -4.614672e-13
O -1.154477e+00 1.869525e-13 1.839232e-13 -1.176704e+00 3.113589e-13 4.765998e-13
3
Lattice="1.800000e+01 0.000000e+00 0.000000e+00 0.000000e+00 1.800000e+01 0.000000e+00 0.000000e+00 0.000000e+00 1.800000e+01" Properties=species:S:1:pos:R:3:force:R:3 energy=3.223346e-03 dipole="-2.302887e-02 1.690633e-14 4.140153e-15" pol="2.573530e+01 3.049296e-10 2.658781e-10 3.049296e-10 1.199694e+01 2.798048e-13 2.658781e-10 2.798048e-13 1.199694e+01" pbc="T T T"
O 1.163376e+00 -6.755860e-13 -8.711160e-13 1.787642e-02 6.722589e-14 -3.472545e-14
C -8.839195e-04 -1.846831e-13 -3.914711e-13 9.745575e-01 -4.956053e-13 -4.004285e-13
O -1.155254e+00 2.907622e-13 8.865793e-14 -9.924967e-01 4.632815e-13 3.847038e-13
3
Lattice="1.800000e+01 0.000000e+00 0.000000e+00 0.000000e+00 1.800000e+01 0.000000e+00 0.000000e+00 0.000000e+00 1.800000e+01" Properties=species:S:1:pos:R:3:force:R:3 energy=1.785771e-05 dipole="1.728460e-02 -1.744348e-14 -1.194011e-14" pol="2.595090e+01 -1.542911e-10 -2.877768e-10 -1.542911e-10 1.205473e+01 1.017469e-13 -2.877768e-10 1.017469e-13 1.205473e+01" pbc="T T T"
O 1.165901e+00 -8.317148e-13 -9.978808e-13 3.001802e-01 -2.393744e-13 -2.168150e-13
C 5.420527e-03 -2.696444e-13 -5.077790e-13 -7.094676e-01 4.488469e-13 3.157548e-13
O -1.162527e+00 3.131825e-13 -1.153419e-14 4.093332e-01 -2.038137e-13 -1.641941e-13
3
Lattice="1.800000e+01 0.000000e+00 0.000000e+00 0.000000e+00 1.800000e+01 0.000000e+00 0.000000e+00 0.000000e+00 1.800000e+01" Properties=species:S:1:pos:R:3:force:R:3 energy=3.049788e-03 dipole="-2.451686e-02 2.246889e-14 2.958896e-15" pol="2.610551e+01 -1.884426e-10 -8.467504e-11 -1.884426e-10 1.209683e+01 -1.714212e-12 -8.467504e-11 -1.714212e-12 1.209683e+01" pbc="T T T"
O 1.171823e+00 -1.114087e-12 -1.204324e-12 -9.234446e-01 6.112493e-13 3.131776e-13
C -1.166553e-03 -4.005639e-13 -7.536534e-13 9.848891e-01 -7.328306e-13 -3.956068e-13
O -1.163521e+00 2.930802e-13 -3.039354e-13 -6.149781e-02 1.203270e-13 -4.163671e-14
3
Lattice="1.800000e+01 0.000000e+00 0.000000e+00 0.000000e+00 1.800000e+01 0.000000e+00 0.000000e+00 0.000000e+00 1.800000e+01" Properties=species:S:1:pos:R:3:force:R:3 energy=8.704488e-03 dipole="4.278886e-02 -2.998098e-14 -2.000415e-14" pol="2.612478e+01 -8.233824e-10 3.604977e-10 -8.233824e-10 1.210454e+01 -3.920694e-12 3.604977e-10 -3.920694e-12 1.210454e+01" pbc="T T T"
O 1.168171e+00 -1.179276e-12 -1.252967e-12 4.104764e-01 -2.744921e-13 -1.994664e-13
C 9.447378e-03 -4.596587e-13 -8.264064e-13 -1.716038e+00 1.080936e-12 6.238359e-13
O -1.167846e+00 2.765424e-13 -3.896259e-13 1.305646e+00 -8.184155e-13 -4.599242e-13
3
Lattice="1.800000e+01 0.000000e+00 0.000000e+00 0.000000e+00 1.800000e+01 0.000000e+00 0.000000e+00 0.000000e+00 1.800000e+01" Properties=species:S:1:pos:R:3:force:R:3 energy=7.742682e-03 dipole="-3.509373e-02 1.310481e-14 1.252210e-14" pol="2.568645e+01 8.928306e-10 -5.463456e-10 8.928306e-10 1.198481e+01 -2.568567e-12 -5.463456e-10 -2.568567e-12 1.198481e+01" pbc="T T T"
O 1.162908e+00 -1.236082e-12 -1.299549e-12 -9.726843e-02 9.960047e-14 9.872704e-14
C -2.777945e-03 -5.010916e-13 -8.914556e-13 1.496148e+00 -8.851716e-13 -5.601167e-13
O -1.153412e+00 2.387350e-13 -4.892161e-13 -1.398968e+00 8.336984e-13 4.550798e-13
3
Lattice="1.800000e+01 0.000000e+00 0.000000e+00 0.000000e+00 1.800000e+01 0.000000e+00 0.000000e+00 0.000000e+00 1.800000e+01" Properties=species:S:1:pos:R:3:force:R:3 energy=1.029600e-02 dipole="-4.154326e-02 1.430588e-14 1.232324e-14" pol="2.567806e+01 6.256670e-10 7.669716e-10 6.256670e-10 1.198330e+01 9.430547e-13 7.669716e-10 9.430547e-13 1.198330e+01" pbc="T T T"
O 1.163060e+00 -1.321806e-12 -1.375093e-12 -2.019827e-01 4.927863e-14 1.012545e-13
C -3.785177e-03 -5.847913e-13 -1.024616e-12 1.773841e+00 -9.808050e-13 -5.649086e-13
O -1.152817e+00 1.660226e-13 -6.801663e-13 -1.571958e+00 9.723449e-13 4.452755e-13
3
Lattice="1.800000e+01 0.000000e+00 0.000000e+00 0.000000e+00 1.800000e+01 0.000000e+00 0.000000e+00 0.000000e+00 1.800000e+01" Properties=species:S:1:pos:R:3:force:R:3 energy=9.749239e-03 dipole="4.133475e-02 -2.075158e-14 -1.090274e-14" pol="2.618982e+01 -1.104694e-10 -4.507194e-10 -1.104694e-10 1.212179e+01 1.195762e-12 -4.507194e-10 1.195762e-12 1.212179e+01" pbc="T T T"
O 1.169705e+00 -1.451538e-12 -1.481305e-12 2.131360e-01 -1.028050e-13 -1.047698e-14
C 9.216651e-03 -7.219928e-13 -1.260121e-12 -1.642455e+00 9.581631e-13 3.762690e-13
O -1.169242e+00 8.997770e-15 -1.030133e-12 1.429390e+00 -8.151593e-13 -3.561391e-13
3
Lattice="1.800000e+01 0.000000e+00 0.000000e+00 0.000000e+00 1.800000e+01 0.000000e+00 0.000000e+00 0.000000e+00 1.800000e+01" Properties=species:S:1:pos:R:3:force:R:3 energy=4.797680e-03 dipole="-2.138123e-02 1.835117e-14 -4.225019e-16" pol="2.620083e+01 -5.926132e-10 4.607892e-10 -5.926132e-10 1.212202e+01 -1.771609e-12 4.607892e-10 -1.771609e-12 1.212202e+01" pbc="T T T"
O 1.173768e+00 -1.506761e-12 -1.561075e-12 -1.089450e+00 6.777845e-13 1.017702e-13
C -7.017552e-04 -8.009813e-13 -1.396379e-12 8.473522e-01 -6.199722e-13 -1.110675e-13
O -1.165873e+00 -1.150054e-13 -1.228069e-12 2.420590e-01 -7.003806e-14 4.411698e-16
3
Lattice="1.800000e+01 0.000000e+00 0.000000e+00 0.000000e+00 1.800000e+01 0.000000e+00 0.000000e+00 0.000000e+00 1.800000e+01" Properties=species:S:1:pos:R:3:force:R:3 energy=7.072655e-03 dipole="2.746286e-02 -2.629747e-14 8.857926e-17" pol="2.563776e+01 -2.308737e-10 2.185152e-10 -2.308737e-10 1.197082e+01 -2.675103e-13 2.185152e-10 -2.675103e-13 1.197082e+01" pbc="T T T"
O 1.158151e+00 -1.536450e-12 -1.693866e-12 1.357954e+00 -7.908810e-13 -1.595682e-13
C 6.951287e-03 -9.265067e-13 -1.572661e-12 -1.178448e+00 7.404772e-13 7.007110e-14
O -1.156012e+00 -2.836514e-13 -1.456729e-12 -1.794360e-01 -2.292115e-14 9.635569e-14
3
Lattice="1.800000e+01 0.000000e+00 0.000000e+00 0.000000e+00 1.800000e+01 0.000000e+00 0.000000e+00 0.000000e+00 1.800000e+01" Properties=species:S:1:pos:R:3:force:R:3 energy=7.918944e-03 dipole="-3.035062e-02 -2.410558e-14 1.029067e-14" pol="2.623805e+01 -5.738755e-10 4.286939e-11 -5.738755e-10 1.213299e+01 -2.732422e-12 4.286939e-11 -2.732422e-12 1.213299e+01" pbc="T T T"
O 1.175061e+00 -1.936356e-12 -2.868390e-12 -1.341860e+00 6.452306e-14 3.911454e-13
C -2.160988e-03 -1.652602e-12 -2.565969e-12 1.197010e+00 1.195229e-13 -4.440700e-13
O -1.166170e+00 -1.310077e-12 -2.274109e-12 1.448011e-01 -2.897113e-13 -5.947451e-14
3
Lattice="1.800000e+01 0.000000e+00 0.000000e+00 0.000000e+00 1.800000e+01 0.000000e+00 0.000000e+00 0.000000e+00 1.800000e+01" Properties=species:S:1:pos:R:3:force:R:3 energy=4.151661e-03 dipole="2.470853e-02 -3.494435e-14 -6.481890e-15" pol="2.615350e+01 -5.311605e-10 -8.218557e-12 -5.311605e-10 1.210970e+01 1.410854e-12 -8.218557e-12 1.410854e-12 1.210970e+01" pbc="T T T"
O 1.169922e+00 -1.983165e-12 -3.070889e-12 -5.467931e-02 -2.368933e-13 9.013026e-14
C 6.539835e-03 -1.781389e-12 -2.733162e-12 -9.859050e-01 6.678066e-13 1.982870e-13
O -1.167574e+00 -1.514221e-12 -2.400743e-12 1.040634e+00 -4.745768e-13 -1.683757e-13
3
Lattice="1.800000e+01 0.000000e+00 0.000000e+00 0.000000e+00 1.800000e+01 0.000000e+00 0.000000e+00 0.000000e+00 1.800000e+01" Properties=species:S:1:pos:R:3:force:R:3 energy=5.448256e-03 dipole="2.260931e-02 3.377244e-14 -1.222331e-14" pol="2.621466e+01 -1.072612e-10 -3.303205e-10 -1.072612e-10 1.212583e+01 7.900131e-13 -3.303205e-10 7.900131e-13 1.212583e+01" pbc="T T T"
O 1.171419e+00 -2.033628e-12 -3.173211e-12 -2.504448e-01 2.901362e-13 -5.930822e-14
C 6.211446e-03 -1.812343e-12 -2.835560e-12 -8.943179e-01 -3.218827e-13 3.729811e-13
O -1.168833e+00 -1.651473e-12 -2.480062e-12 1.144802e+00 7.658079e-14 -4.310110e-13
3
Lattice="1.800000e+01 0.000000e+00 0.000000e+00 0.000000e+00 1.800000e+01 0.000000e+00 0.000000e+00 0.000000e+00 1.800000e+01" Properties=species:S:1:pos:R:3:force:R:3 energy=-1.092475e-03 dipole="-3.903253e-03 2.999306e-14 -3.655534e-15" pol="2.598230e+01 -5.822448e-11 -2.034694e-10 -5.822448e-11 1.206264e+01 1.328726e-12 -2.034694e-10 1.328726e-12 1.206264e+01" pbc="T T T"
O 1.167802e+00 -2.103827e-12 -3.349416e-12 -2.201411e-01 1.817008e-13 1.546742e-13
C 2.015342e-03 -1.953744e-12 -3.003774e-12 1.594556e-01 -3.865753e-13 6.527393e-14
O -1.162084e+00 -1.855099e-12 -2.646407e-12 6.067530e-02 1.729806e-13 -6.608345e-14
3
Lattice="1.800000e+01 0.000000e+00 0.000000e+00 0.000000e+00 1.800000e+01 0.000000e+00 0.000000e+00 0.000000e+00 1.800000e+01" Properties=species:S:1:pos:R:3:force:R:3 energy=5.434855e-03 dipole="-2.582539e-02 -2.995009e-14 1.040646e-14" pol="2.619250e+01 4.820332e-10 2.980275e-10 4.820332e-10 1.212025e+01 1.070856e-12 2.980275e-10 1.070856e-12 1.212025e+01" pbc="T T T"
O 1.173774e+00 -2.142398e-12 -3.455269e-12 -1.152939e+00 -1.599588e-13 4.768109e-13
C -1.457373e-03 -2.083721e-12 -3.102261e-12 1.024870e+00 4.129993e-13 -4.119069e-13
O -1.165460e+00 -1.958890e-12 -2.761423e-12 1.280225e-01 -2.138422e-13 -3.305956e-14
3
Lattice="1.800000e+01 0.000000e+00 0.000000e+00 0.000000e+00 1.800000e+01 0.000000e+00 0.000000e+00 0.000000e+00 1.800000e+01" Properties=species:S:1:pos:R:3:force:R:3 energy=4.394641e-03 dipole="-2.977174e-02 -1.304744e-14 1.121742e-14" pol="2.575685e+01 -5.557824e-10 -2.720302e-10 -5.557824e-10 1.200337e+01 2.106322e-12 -2.720302e-10 2.106322e-12 1.200337e+01" pbc="T T T"
O 1.164147e+00 -2.242132e-12 -3.589338e-12 -1.707992e-01 -1.183701e-13 4.343197e-14
C -2.030862e-03 -2.199755e-12 -3.266825e-12 1.256434e+00 1.261493e-13 -4.190647e-13
O -1.155415e+00 -2.130868e-12 -2.953769e-12 -1.085715e+00 2.467487e-14 3.607936e-13
3
Lattice="1.800000e+01 0.000000e+00 0.000000e+00 0.000000e+00 1.800000e+01 0.000000e+00 0.000000e+00 0.000000e+00 1.800000e+01" Properties=species:S:1:pos:R:3:force:R:3 energy=4.443419e-03 dipole="-3.235118e-02 2.202525e-14 2.769606e-15" pol="2.579411e+01 -1.953251e-11 -3.054854e-10 -1.953251e-11 1.201374e+01 -1.776114e-12 -3.054854e-10 -1.776114e-12 1.201374e+01" pbc="T T T"
O 1.165123e+00 -2.496733e-12 -3.845402e-12 -3.147889e-01 2.141156e-13 2.864734e-14
C -2.450331e-03 -2.457424e-12 -3.624039e-12 1.358325e+00 -3.092147e-13 -2.571251e-13
O -1.156108e+00 -2.462150e-12 -3.401287e-12 -1.043622e+00 1.846975e-13 1.938628e-13
3
Lattice="1.800000e+01 0.000000e+00 0.000000e+00 0.000000e+00 1.800000e+01 0.000000e+00 0.000000e+00 0.000000e+00 1.800000e+01" Properties=species:S:1:pos:R:3:force:R:3 energy=9.438470e-03 dipole="-3.638085e-02 -7.409630e-15 1.937554e-15" pol="2.564655e+01 -4.203049e-10 6.277215e-10 -4.203049e-10 1.197409e+01 -3.367632e-13 6.277215e-10 -3.367632e-13 1.197409e+01" pbc="T T T"
O 1.161970e+00 -2.716730e-12 -4.110917e-12 -2.095102e-02 -3.960643e-14 -8.474360e-15
C -3.069208e-03 -2.732009e-12 -3.945009e-12 1.559846e+00 1.418742e-13 -1.720874e-13
O -1.152522e+00 -2.728824e-12 -3.774606e-12 -1.538983e+00 -4.192443e-14 2.112804e-13
3
Lattice="1.800000e+01 0.000000e+00 0.000000e+00 0.000000e+00 1.800000e+01 0.000000e+00 0.000000e+00 0.000000e+00 1.800000e+01" Properties=species:S:1:pos:R:3:force:R:3 energy=8.250710e-03 dipole="-3.340112e-02 -2.025392e-14 3.282397e-15" pol="2.565289e+01 -2.282188e-10 -3.328173e-10 -2.282188e-10 1.197550e+01 7.868380e-13 -3.328173e-10 7.868380e-13 1.197550e+01" pbc="T T T"
O 1.161932e+00 -3.106555e-12 -4.793640e-12 2.174780e-02 -1.180450e-13 -1.748674e-14
C -2.627827e-03 -3.188098e-12 -4.580811e-12 1.430595e+00 3.481169e-13 -2.138040e-13
O -1.152875e+00 -3.230455e-12 -4.364639e-12 -1.452426e+00 -1.461660e-13 2.490045e-13
3
Lattice="1.800000e+01 0.000000e+00 0.000000e+00 0.000000e+00 1.800000e+01 0.000000e+00 0.000000e+00 0.000000e+00 1.800000e+01" Properties=species:S:1:pos:R:3:force:R:3 energy=5.688790e-03 dipole="3.616107e-02 2.130593e-14 -1.293442e-14" pol="2.608325e+01 3.791938e-10 3.497293e-10 3.791938e-10 1.209229e+01 4.955114e-13 3.497293e-10 4.955114e-13 1.209229e+01" pbc="T T T"
O 1.167503e+00 -3.618663e-12 -6.376360e-12 3.701680e-01 1.158325e-13 -1.783560e-13
C 8.223435e-03 -3.993888e-12 -6.123872e-12 -1.458089e+00 -5.361390e-13 3.644540e-13
O -1.166732e+00 -4.385879e-12 -5.857181e-12 1.087999e+00 4.438244e-13 -2.972682e-13
3
Lattice="1.800000e+01 0.000000e+00 0.000000e+00 0.000000e+00 1.800000e+01 0.000000e+00 0.000000e+00 0.000000e+00 1.800000e+01" Properties=species:S:1:pos:R:3:force:R:3 energy=2.468197e-04 dipole="1.461888e-02 6.850247e-15 -8.916036e-15" pol="2.603375e+01 1.486209e-10 -1.699479e-10 1.486209e-10 1.207682e+01 1.103264e-12 -1.699479e-10 1.103264e-12 1.207682e+01" pbc="T T T"
O 1.167740e+00 -3.730013e-12 -6.597366e-12 3.275369e-02 9.153308e-14 -4.480062e-15
C 4.816243e-03 -4.109336e-12 -6.382165e-12 -5.930403e-01 -2.620465e-13 1.786004e-13
O -1.164437e+00 -4.499000e-12 -6.156756e-12 5.603226e-01 1.766434e-13 -9.593562e-14
3
Lattice="1.800000e+01 0.000000e+00 0.000000e+00 0.000000e+00 1.800000e+01 0.000000e+00 0.000000e+00 0.000000e+00 1.800000e+01" Properties=species:S:1:pos:R:3:force:R:3 energy=2.538081e-03 dipole="-2.948838e-02 -4.835030e-15 4.559211e-15" pol="2.594749e+01 1.442211e-10 -9.982762e-11 1.442211e-10 1.205488e+01 -2.950892e-14 -9.982762e-11 -2.950892e-14 1.205488e+01" pbc="T T T"
O 1.168341e+00 -3.857628e-12 -6.832385e-12 -6.377543e-01 -2.723723e-13 7.096500e-14
C -2.122824e-03 -4.217374e-12 -6.650531e-12 1.211532e+00 3.380584e-13 -1.583601e-13
O -1.159850e+00 -4.581462e-12 -6.463948e-12 -5.738526e-01 -1.537258e-13 7.833165e-14
3
Lattice="1.800000e+01 0.000000e+00 0.000000e+00 0.000000e+00 1.800000e+01 0.000000e+00 0.000000e+00 0.000000e+00 1.800000e+01" Properties=species:S:1:pos:R:3:force:R:3 energy=3.942128e-03 dipole="-2.643105e-02 -2.642969e-14 -1.102189e-14" pol="2.612844e+01 1.547759e-10 2.066258e-10 1.547759e-10 1.210318e+01 -4.747119e-14 2.066258e-10 -4.747119e-14 1.210318e+01" pbc="T T T"
O 1.172245e+00 -3.961226e-12 -7.032066e-12 -1.013794e+00 -5.046531e-13 -7.874180e-14
C -1.670405e-03 -4.316912e-12 -6.878720e-12 1.058448e+00 5.948899e-13 1.231905e-13
O -1.164113e+00 -4.632208e-12 -6.694863e-12 -4.470913e-02 -5.076062e-14 2.424411e-14
3
Lattice="1.800000e+01 0.000000e+00 0.000000e+00 0.000000e+00 1.800000e+01 0.000000e+00 0.000000e+00 0.000000e+00 1.800000e+01" Properties=species:S:1:pos:R:3:force:R:3 energy=1.078228e-02 dipole="-3.951769e-02 9.924195e-15 2.464752e-14" pol="2.624382e+01 2.682085e-10 -6.871995e-10 2.682085e-10 1.213597e+01 1.766943e-12 -6.871995e-10 1.766943e-12 1.213597e+01" pbc="T T T"
O 1.175524e+00 -4.224331e-12 -7.489824e-12 -1.520253e+00 -1.484301e-13 4.513085e-13
C -3.770648e-03 -4.451032e-12 -7.298280e-12 1.558164e+00 7.225392e-15 -4.766096e-13
O -1.165860e+00 -4.715512e-12 -7.142024e-12 -3.797135e-02 1.135201e-13 1.397870e-13
3
Lattice="1.800000e+01 0.000000e+00 0.000000e+00 0.000000e+00 1.800000e+01 0.000000e+00 0.000000e+00 0.000000e+00 1.800000e+01" Properties=species:S:1:pos:R:3:force:R:3 energy=7.099496e-03 dipole="-3.237312e-02 -2.005143e-14 -3.936686e-15" pol="2.567932e+01 -2.124866e-10 1.746153e-10 -2.124866e-10 1.198258e+01 -8.677157e-13 1.746153e-10 -8.677157e-13 1.198258e+01" pbc="T T T"
O 1.162346e+00 -4.712620e-12 -8.934329e-12 -2.543443e-02 -9.001217e-14 -1.033524e-13
C -2.603775e-03 -4.826166e-12 -8.624867e-12 1.381357e+00 3.521433e-13 -2.491684e-13
O -1.153672e+00 -4.908885e-12 -8.294018e-12 -1.356006e+00 -1.812033e-13 3.098755e-13
3
Lattice="1.800000e+01 0.000000e+00 0.000000e+00 0.000000e+00 1.800000e+01 0.000000e+00 0.000000e+00 0.000000e+00 1.800000e+01" Properties=species:S:1:pos:R:3:force:R:3 energy=1.541597e-03 dipole="-2.196231e-02 2.655645e-14 2.062704e-14" pol="2.604400e+01 1.914035e-10 -3.116132e-10 1.914035e-10 1.208010e+01 -7.135157e-13 -3.116132e-10 -7.135157e-13 1.208010e+01" pbc="T T T"
O 1.170034e+00 -4.761872e-12 -9.150801e-12 -7.274908e-01 1.778184e-13 4.402298e-13
C -1.020405e-03 -4.833587e-12 -8.795008e-12 8.898586e-01 -3.696709e-13 -6.396852e-13
O -1.162563e+00 -4.963642e-12 -8.483748e-12 -1.624203e-01 1.770704e-13 1.762524e-13
3
Lattice="1.800000e+01 0.000000e+00 0.000000e+00 0.000000e+00 1.800000e+01 0.000000e+00 0.000000e+00 0.000000e+00 1.800000e+01" Properties=species:S:1:pos:R:3:force:R:3 energy=3.445051e-03 dipole="1.247853e-02 1.345750e-14 3.095533e-15" pol="2.566280e+01 -4.190348e-10 3.186716e-10 -4.190348e-10 1.197668e+01 7.186215e-13 3.186716e-10 7.186215e-13 1.197668e+01" pbc="T T T"
O 1.159343e+00 -4.809941e-12 -1.061159e-11 9.541763e-01 2.863645e-13 -9.414233e-14
C 4.327848e-03 -5.107297e-12 -1.040378e-11 -5.333397e-01 -2.466630e-13 7.168469e-15
O -1.156036e+00 -5.419881e-12 -1.020533e-11 -4.208029e-01 -7.282863e-14 1.210807e-13
3
Lattice="1.800000e+01 0.000000e+00 0.000000e+00 0.000000e+00 1.800000e+01 0.000000e+00 0.000000e+00 0.000000e+00 1.800000e+01" Properties=species:S:1:pos:R:3:force:R:3 energy=6.894500e-03 dipole="3.288894e-02 1.609418e-14 2.765706e-15" pol="2.569168e+01 1.325188e-10 -6.693670e-11 1.325188e-10 1.198599e+01 -1.306294e-12 -6.693670e-11 -1.306294e-12 1.198599e+01" pbc="T T T"
O 1.158730e+00 -4.828776e-12 -1.105849e-11 1.333914e+00 4.322092e-13 -1.512838e-13
C 7.496189e-03 -5.153313e-12 -1.088390e-11 -1.400966e+00 -5.761797e-13 4.964773e-14
O -1.157846e+00 -5.508870e-12 -1.072183e-11 6.713642e-02 1.360010e-13 8.517691e-14
3
Lattice="1.800000e+01 0.000000e+00 0.000000e+00 0.000000e+00 1.800000e+01 0.000000e+00 0.000000e+00 0.000000e+00 1.800000e+01" Properties=species:S:1:pos:R:3:force:R:3 energy=4.913275e-03 dipole="-3.601192e-02 1.902017e-14 2.682118e-14" pol="2.602910e+01 -3.985809e-10 -4.727959e-10 -3.985809e-10 1.207769e+01 4.101859e-12 -4.727959e-10 4.101859e-12 1.207769e+01" pbc="T T T"
O 1.170387e+00 -4.859289e-12 -1.136396e-11 -9.571199e-01 -6.567366e-14 2.986928e-13
C -3.308990e-03 -5.171277e-12 -1.118492e-11 1.463168e+00 -1.794277e-14 -5.040274e-13
O -1.161417e+00 -5.540603e-12 -1.105173e-11 -5.061309e-01 1.342810e-13 2.726265e-13
3
Lattice="1.800000e+01 0.000000e+00 0.000000e+00 0.000000e+00 1.800000e+01 0.000000e+00 0.000000e+00 0.000000e+00 1.800000e+01" Properties=species:S:1:pos:R:3:force:R:3 energy=6.916114e-03 dipole="-2.788359e-02 3.088852e-15 9.874402e-15" pol="2.564549e+01 8.589249e-11 -4.354804e-10 8.589249e-11 1.197296e+01 -2.407222e-12 -4.354804e-10 -2.407222e-12 1.197296e+01" pbc="T T T"
O 1.161218e+00 -4.963470e-12 -1.213543e-11 1.509798e-01 2.135116e-13 4.835149e-15
C -2.011648e-03 -5.236109e-12 -1.194435e-11 1.195222e+00 1.375578e-13 -3.035604e-13
O -1.153295e+00 -5.528266e-12 -1.176724e-11 -1.346273e+00 -2.969318e-13 3.534137e-13
3
Lattice="1.800000e+01 0.000000e+00 0.000000e+00 0.000000e+00 1.800000e+01 0.000000e+00 0.000000e+00 0.000000e+00 1.800000e+01" Properties=species:S:1:pos:R:3:force:R:3 energy=4.200456e-03 dipole="2.369249e-02 -2.073453e-14 -3.095014e-14" pol="2.616368e+01 -6.553656e-10 -2.319151e-10 -6.553656e-10 1.211232e+01 2.533139e-12 -2.319151e-10 2.533139e-12 1.211232e+01" pbc="T T T"
O 1.169893e+00 -5.031554e-12 -1.261516e-11 -1.015264e-01 -1.890999e-13 -1.380560e-13
C 6.060114e-03 -5.275400e-12 -1.240145e-11 -9.439678e-01 1.531213e-13 5.116696e-13
O -1.168067e+00 -5.475987e-12 -1.213690e-11 1.045541e+00 -4.455348e-15 -3.912351e-13
3
Lattice="1.800000e+01 0.000000e+00 0.000000e+00 0.000000e+00 1.800000e+01 0.000000e+00 0.000000e+00 0.000000e+00 1.800000e+01" Properties=species:S:1:pos:R:3:force:R:3 energy=6.390800e-03 dipole="3.501656e-02 8.092972e-15 -2.620812e-15" pol="2.573707e+01 -5.944744e-10 6.585585e-10 -5.944744e-10 1.199856e+01 9.406613e-13 6.585585e-10 9.406613e-13 1.199856e+01" pbc="T T T"
O 1.159557e+00 -5.107010e-12 -1.318614e-11 1.258645e+00 1.761278e-13 -2.585563e-13
C 7.766959e-03 -5.270379e-12 -1.287674e-11 -1.482273e+00 -2.207506e-13 2.869710e-13
O -1.159062e+00 -5.439573e-12 -1.257320e-11 2.237183e-01 -1.015438e-14 -5.598312e-14
3
Lattice="1.800000e+01 0.000000e+00 0.000000e+00 0.000000e+00 1.800000e+01 0.000000e+00 0.000000e+00 0.000000e+00 1.800000e+01" Properties=species:S:1:pos:R:3:force:R:3 energy=3.106554e-04 dipole="-1.826046e-02 -4.621441e-15 -5.658598e-15" pol="2.587476e+01 9.671469e-12 -1.138430e-11 9.671469e-12 1.203430e+01 -7.453854e-13 -1.138430e-11 -7.453854e-13 1.203430e+01" pbc="T T T"
O 1.165845e+00 -5.136778e-12 -1.380916e-11 -2.394007e-01 -4.461574e-14 -3.570384e-14
C -5.811498e-04 -5.277874e-12 -1.345503e-11 7.576264e-01 1.374626e-13 -4.753305e-14
O -1.159136e+00 -5.411834e-12 -1.308256e-11 -5.182761e-01 -1.364824e-13 3.491444e-14
3
Lattice="1.800000e+01 0.000000e+00 0.000000e+00 0.000000e+00 1.800000e+01 0.000000e+00 0.000000e+00 0.000000e+00 1.800000e+01" Properties=species:S:1:pos:R:3:force:R:3 energy=1.246534e-02 dipole="-4.424093e-02 4.483543e-15 3.069098e-14" pol="2.624482e+01 -1.648749e-10 7.144142e-10 -1.648749e-10 1.213711e+01 2.361023e-13 7.144142e-10 2.361023e-13 1.213711e+01" pbc="T T T"
O 1.175555e+00 -5.078000e-12 -1.479131e-11 -1.606092e+00 -1.172297e-13 6.292878e-13
C -4.757074e-03 -5.254193e-12 -1.443161e-11 1.744758e+00 6.381078e-14 -7.861330e-13
O -1.165808e+00 -5.453907e-12 -1.410885e-11 -1.387319e-01 1.219632e-13 1.362650e-13
3
Lattice="1.800000e+01 0.000000e+00 0.000000e+00 0.000000e+00 1.800000e+01 0.000000e+00 0.000000e+00 0.000000e+00 1.800000e+01" Properties=species:S:1:pos:R:3:force:R:3 energy=9.880669e-03 dipole="3.669693e-02 -3.615667e-15 -1.778140e-14" pol="2.563695e+01 5.608850e-10 -2.110199e-10 5.608850e-10 1.197151e+01 -9.734183e-13 -2.110199e-10 -9.734183e-13 1.197151e+01" pbc="T T T"
O 1.157105e+00 -4.948100e-12 -1.536169e-11 1.572981e+00 2.369750e-13 -4.589877e-13
C 7.937418e-03 -5.236971e-12 -1.513209e-11 -1.575545e+00 -1.439721e-13 4.656389e-13
O -1.156948e+00 -5.497394e-12 -1.487875e-11 2.653435e-03 -1.125406e-13 -5.633063e-14
3
Lattice="1.800000e+01 0.000000e+00 0.000000e+00 0.000000e+00 1.800000e+01 0.000000e+00 0.000000e+00 0.000000e+00 1.800000e+01" Properties=species:S:1:pos:R:3:force:R:3 energy=6.153796e-03 dipole="-3.751558e-02 -1.891177e-15 -5.444173e-16" pol="2.608535e+01 -7.883130e-10 1.674819e-10 -7.883130e-10 1.209306e+01 -3.223494e-13 1.674819e-10 -3.223494e-13 1.209306e+01" pbc="T T T"
O 1.171590e+00 -4.906796e-12 -1.558512e-11 -1.117822e+00 -2.890844e-13 9.521900e-14
C -3.698728e-03 -5.208874e-12 -1.538820e-11 1.512386e+00 2.939255e-13 -1.658965e-13
O -1.162724e+00 -5.520981e-12 -1.517832e-11 -3.946438e-01 -7.990414e-14 9.628454e-14
3
Lattice="1.800000e+01 0.000000e+00 0.000000e+00 0.000000e+00 1.800000e+01 0.000000e+00 0.000000e+00 0.000000e+00 1.800000e+01" Properties=species:S:1:pos:R:3:force:R:3 energy=1.230397e-03 dipole="2.601429e-03 2.533827e-14 6.200590e-15" pol="2.571741e+01 2.220558e-10 3.947682e-10 2.220558e-10 1.199125e+01 -1.164550e-12 3.947682e-10 -1.164550e-12 1.199125e+01" pbc="T T T"
O 1.160964e+00 -4.824175e-12 -1.664574e-11 5.946123e-01 2.931377e-13 -1.154347e-14
C 2.579705e-03 -5.116726e-12 -1.653479e-11 -1.103061e-01 -3.388640e-13 -8.834240e-14
O -1.156921e+00 -5.452116e-12 -1.644012e-11 -4.842989e-01 7.557384e-14 1.858233e-13
3
Lattice="1.800000e+01 0.000000e+00 0.000000e+00 0.000000e+00 1.800000e+01 0.000000e+00 0.000000e+00 0.000000e+00 1.800000e+01" Properties=species:S:1:pos:R:3:force:R:3 energy=3.839117e-03 dipole="2.417201e-02 -1.824871e-14 -1.263934e-14" pol="2.571987e+01 -5.355249e-11 -4.331749e-10 -5.355249e-11 1.199285e+01 3.651236e-13 -4.331749e-10 3.651236e-13 1.199285e+01" pbc="T T T"
O 1.159695e+00 -4.822789e-12 -1.725872e-11 1.059664e+00 6.214968e-14 -1.477713e-13
C 5.922935e-03 -5.086605e-12 -1.715718e-11 -1.025200e+00 7.813951e-14 2.927342e-13
O -1.158226e+00 -5.311765e-12 -1.703136e-11 -3.439906e-02 -1.852868e-13 -1.005074e-13
3
Lattice="1.800000e+01 0.000000e+00 0.000000e+00 0.000000e+00 1.800000e+01 0.000000e+00 0.000000e+00 0.000000e+00 1.800000e+01" Properties=species:S:1:pos:R:3:force:R:3 energy=4.572889e-03 dipole="1.202441e-02 2.598651e-14 -8.865931e-15" pol="2.623477e+01 7.147455e-10 -6.171658e-10 7.147455e-10 1.213037e+01 -1.137850e-12 -6.171658e-10 -1.137850e-12 1.213037e+01" pbc="T T T"
O 1.172004e+00 -4.787025e-12 -1.849037e-11 -5.178531e-01 1.711458e-13 4.533026e-14
C 4.015066e-03 -4.902239e-12 -1.827218e-11 -4.741205e-01 -4.300687e-13 1.129370e-13
O -1.169208e+00 -5.068226e-12 -1.804930e-11 9.919938e-01 2.508227e-13 -1.751539e-13
3
Lattice="1.800000e+01 0.000000e+00 0.000000e+00 0.000000e+00 1.800000e+01 0.000000e+00 0.000000e+00 0.000000e+00 1.800000e+01" Properties=species:S:1:pos:R:3:force:R:3 energy=4.180435e-03 dipole="2.952133e-02 2.978787e-14 2.805279e-15" pol="2.576412e+01 3.934810e-10 1.490040e-10 3.934810e-10 1.200532e+01 2.398335e-13 1.490040e-10 2.398335e-13 1.200532e+01" pbc="T T T"
O 1.160314e+00 -4.742635e-12 -1.890464e-11 1.060455e+00 2.914711e-13 -1.310175e-13
C 6.710986e-03 -4.850046e-12 -1.862362e-11 -1.244579e+00 -4.874322e-13 1.361538e-13
O -1.159580e+00 -5.008911e-12 -1.836383e-11 1.842037e-01 1.387549e-13 5.722151e-14
3
Lattice="1.800000e+01 0.000000e+00 0.000000e+00 0.000000e+00 1.800000e+01 0.000000e+00 0.000000e+00 0.000000e+00 1.800000e+01" Properties=species:S:1:pos:R:3:force:R:3 energy=2.889902e-03 dipole="5.735964e-03 -2.809623e-14 -8.224618e-15" pol="2.619662e+01 1.917662e-10 -1.127789e-10 1.917662e-10 1.211998e+01 -2.371473e-12 -1.127789e-10 -2.371473e-12 1.211998e+01" pbc="T T T"
O 1.171509e+00 -4.680087e-12 -1.921293e-11 -5.525332e-01 -3.338922e-13 5.317007e-14
C 2.995491e-03 -4.847546e-12 -1.890963e-11 -2.273572e-01 4.725352e-13 2.069887e-13
O -1.168013e+00 -4.953939e-12 -1.859131e-11 7.799011e-01 -1.715990e-13 -2.833055e-13
3
Lattice="1.800000e+01 0.000000e+00 0.000000e+00 0.000000e+00 1.800000e+01 0.000000e+00 0.000000e+00 0.000000e+00 1.800000e+01" Properties=species:S:1:pos:R:3:force:R:3 energy=7.841420e-03 dipole="3.021421e-02 1.083946e-14 -5.294237e-17" pol="2.563706e+01 4.614415e-10 8.066572e-10 4.614415e-10 1.197087e+01 -5.751605e-13 8.066572e-10 -5.751605e-13 1.197087e+01" pbc="T T T"
O 1.157297e+00 -4.083422e-12 -2.160893e-11 1.422827e+00 3.406856e-13 -3.368427e-13
C 6.711500e-03 -4.389318e-12 -2.127846e-11 -1.296788e+00 -3.866917e-13 1.918714e-13
O -1.156815e+00 -4.705489e-12 -2.096722e-11 -1.259640e-01 -2.624723e-15 1.920104e-13
3
Lattice="1.800000e+01 0.000000e+00 0.000000e+00 0.000000e+00 1.800000e+01 0.000000e+00 0.000000e+00 0.000000e+00 1.800000e+01" Properties=species:S:1:pos:R:3:force:R:3 energy=-7.290323e-04 dipole="-1.122291e-02 2.750527e-14 8.275985e-15" pol="2.595669e+01 -1.816588e-10 6.658548e-10 -1.816588e-10 1.205597e+01 -4.667987e-14 6.658548e-10 -4.667987e-14 1.205597e+01" pbc="T T T"
O 1.166986e+00 -3.848986e-12 -2.257891e-11 -3.035378e-01 8.377703e-14 9.575765e-14
C 2.040491e-04 -4.126681e-12 -2.238683e-11 4.602130e-01 -3.072981e-13 -1.571662e-13
O -1.161729e+00 -4.466837e-12 -2.220826e-11 -1.567052e-01 1.234924e-13 9.853848e-14
3
Lattice="1.800000e+01 0.000000e+00 0.000000e+00 0.000000e+00 1.800000e+01 0.000000e+00 0.000000e+00 0.000000e+00 1.800000e+01" Properties=species:S:1:pos:R:3:force:R:3 energy=8.946906e-03 dipole="4.148035e-02 -1.223421e-14 -1.175965e-14" pol="2.572571e+01 5.964952e-10 -2.498384e-10 5.964952e-10 1.199627e+01 -3.751079e-12 -2.498384e-10 -3.751079e-12 1.199627e+01" pbc="T T T"
O 1.158496e+00 -3.558399e-12 -2.419837e-11 1.438943e+00 9.869871e-14 -2.308163e-13
C 8.380304e-03 -3.744569e-12 -2.407584e-11 -1.759340e+00 1.851132e-14 2.329538e-13
O -1.159545e+00 -3.895374e-12 -2.394046e-11 3.205000e-01 -4.664260e-14 -5.949195e-14
3
Lattice="1.800000e+01 0.000000e+00 0.000000e+00 0.000000e+00 1.800000e+01 0.000000e+00 0.000000e+00 0.000000e+00 1.800000e+01" Properties=species:S:1:pos:R:3:force:R:3 energy=7.153224e-03 dipole="-3.235165e-02 -3.536380e-14 -2.493252e-14" pol="2.619667e+01 -1.427577e-10 3.358159e-10 -1.427577e-10 1.212220e+01 4.780526e-12 3.358159e-10 4.780526e-12 1.212220e+01" pbc="T T T"
O 1.173474e+00 -3.352734e-12 -2.511427e-11 -1.282845e+00 -3.986967e-13 -4.962998e-14
C -3.239210e-03 -3.524025e-12 -2.494144e-11 1.283534e+00 6.744571e-13 1.605027e-13
O -1.165885e+00 -3.628373e-12 -2.471835e-11 -7.455556e-04 -2.546838e-13 -1.353839e-13
3
Lattice="1.800000e+01 0.000000e+00 0.000000e+00 0.000000e+00 1.800000e+01 0.000000e+00 0.000000e+00 0.000000e+00 1.800000e+01" Properties=species:S:1:pos:R:3:force:R:3 energy=5.091126e-03 dipole="2.328616e-02 3.658064e-14 1.366005e-14" pol="2.619868e+01 2.384907e-10 3.638148e-11 2.384907e-10 1.212163e+01 -1.664915e-13 3.638148e-11 -1.664915e-13 1.212163e+01" pbc="T T T"
O 1.170213e+00 -2.979083e-12 -2.655677e-11 -1.968455e-01 2.929014e-13 2.516583e-13
C 5.511046e-03 -3.107701e-12 -2.617805e-11 -9.231950e-01 -6.338302e-13 -7.293356e-14
O -1.169318e+00 -3.307129e-12 -2.584187e-11 1.120083e+00 3.469393e-13 -2.005102e-13
3
Lattice="1.800000e+01 0.000000e+00 0.000000e+00 0.000000e+00 1.800000e+01 0.000000e+00 0.000000e+00 0.000000e+00 1.800000e+01" Properties=species:S:1:pos:R:3:force:R:3 energy=4.660795e-03 dipole="3.497700e-02 3.345384e-14 6.903524e-15" pol="2.603535e+01 -5.458079e-10 2.475937e-10 -5.458079e-10 1.207923e+01 1.886414e-13 2.475937e-10 1.886414e-13 1.207923e+01" pbc="T T T"
O 1.165715e+00 -2.033054e-12 -2.903002e-11 4.671293e-01 3.328122e-13 3.270208e-14
C 7.238882e-03 -2.322142e-12 -2.873545e-11 -1.419784e+00 -7.103349e-13 5.169381e-14
O -1.166381e+00 -2.661982e-12 -2.847371e-11 9.527352e-01 4.779016e-13 -5.477187e-14
3
Lattice="1.800000e+01 0.000000e+00 0.000000e+00 0.000000e+00 1.800000e+01 0.000000e+00 0.000000e+00 0.000000e+00 1.800000e+01" Properties=species:S:1:pos:R:3:force:R:3 energy=2.564019e-03 dipole="6.651989e-03 -2.328077e-14 -1.312664e-14" pol="2.567465e+01 -1.334247e-10 -2.488386e-10 -1.334247e-10 1.197972e+01 -6.133797e-14 -2.488386e-10 -6.133797e-14 1.197972e+01" pbc="T T T"
O 1.159300e+00 -1.928608e-12 -2.929413e-11 7.952361e-01 -3.331517e-14 -2.904020e-13
C 2.758979e-03 -2.256681e-12 -2.907185e-11 -2.838063e-01 3.053366e-13 2.081353e-13
O -1.156634e+00 -2.535628e-12 -2.882692e-11 -5.114115e-01 -2.829678e-13 1.829578e-14
3
Lattice="1.800000e+01 0.000000e+00 0.000000e+00 0.000000e+00 1.800000e+01 0.000000e+00 0.000000e+00 0.000000e+00 1.800000e+01" Properties=species:S:1:pos:R:3:force:R:3 energy=2.893847e-03 dipole="6.423502e-03 -2.528366e-14 1.327881e-15" pol="2.566335e+01 6.779530e-11 7.467026e-11 6.779530e-11 1.197666e+01 3.485503e-12 7.467026e-11 3.485503e-12 1.197666e+01" pbc="T T T"
O 1.159036e+00 -1.775924e-12 -2.978401e-11 8.205098e-01 1.539951e-14 -1.113578e-13
C 2.703689e-03 -2.072736e-12 -2.962707e-11 -2.744931e-01 3.103121e-13 4.167626e-14
O -1.156382e+00 -2.322869e-12 -2.946730e-11 -5.459991e-01 -3.586780e-13 4.502615e-14
3
Lattice="1.800000e+01 0.000000e+00 0.000000e+00 0.000000e+00 1.800000e+01 0.000000e+00 0.000000e+00 0.000000e+00 1.800000e+01" Properties=species:S:1:pos:R:3:force:R:3 energy=-1.029138e-03 dipole="5.433133e-03 -2.712537e-14 6.731875e-15" pol="2.598238e+01 -9.553841e-11 2.646416e-10 -9.553841e-11 1.206269e+01 -3.693445e-12 2.646416e-10 -3.693445e-12 1.206269e+01" pbc="T T T"
O 1.166265e+00 -1.318157e-12 -3.131649e-11 -2.928907e-02 -1.927912e-13 -3.848085e-15
C 2.495132e-03 -1.528409e-12 -3.127108e-11 -2.219623e-01 3.671004e-13 -1.009189e-14
O -1.163623e+00 -1.682895e-12 -3.123179e-11 2.512657e-01 -1.907558e-13 2.959071e-15
3
Lattice="1.800000e+01 0.000000e+00 0.000000e+00 0.000000e+00 1.800000e+01 0.000000e+00 0.000000e+00 0.000000e+00 1.800000e+01" Properties=species:S:1:pos:R:3:force:R:3 energy=1.152197e-02 dipole="4.370385e-02 3.713689e-14 5.077868e-15" pol="2.566642e+01 -1.434496e-10 6.283750e-10 -1.434496e-10 1.198041e+01 1.573747e-12 6.283750e-10 1.573747e-12 1.198041e+01" pbc="T T T"
O 1.156719e+00 -1.078855e-12 -3.205957e-11 1.655054e+00 4.029705e-13 -1.253853e-14
C 8.423673e-03 -1.218713e-12 -3.202089e-11 -1.869398e+00 -7.058604e-13 -6.084310e-14
O -1.158605e+00 -1.423992e-12 -3.199329e-11 2.144466e-01 2.401355e-13 6.173890e-14
3
Lattice="1.800000e+01 0.000000e+00 0.000000e+00 0.000000e+00 1.800000e+01 0.000000e+00 0.000000e+00 0.000000e+00 1.800000e+01" Properties=species:S:1:pos:R:3:force:R:3 energy=5.425555e-03 dipole="3.847496e-02 1.048801e-15 1.182771e-14" pol="2.599475e+01 -5.046949e-10 8.385727e-10 -5.046949e-10 1.206878e+01 1.452181e-12 8.385727e-10 1.452181e-12 1.206878e+01" pbc="T T T"
O 1.164441e+00 -8.961713e-13 -3.251407e-11 6.500893e-01 9.831800e-14 1.261725e-14
C 7.644468e-03 -1.083214e-12 -3.246576e-11 -1.571047e+00 -1.646109e-13 -1.502200e-13
O -1.165791e+00 -1.265083e-12 -3.243881e-11 9.210489e-01 1.049009e-13 2.087883e-14
3
Lattice="1.800000e+01 0.000000e+00 0.000000e+00 0.000000e+00 1.800000e+01 0.000000e+00 0.000000e+00 0.000000e+00 1.800000e+01" Properties=species:S:1:pos:R:3:force:R:3 energy=5.966034e-03 dipole="3.936842e-02 5.156628e-15 -1.459677e-14" pol="2.585267e+01 -2.363752e-10 2.959497e-10 -2.363752e-10 1.203047e+01 -1.566552e-12 2.959497e-10 -1.566552e-12 1.203047e+01" pbc="T T T"
O 1.161177e+00 -7.748476e-13 -3.280784e-11 1.045783e+00 1.762674e-13 -1.573964e-13
C 7.750090e-03 -9.714509e-13 -3.277654e-11 -1.640045e+00 -2.362816e-13 2.463033e-13
O -1.162637e+00 -1.168949e-12 -3.272161e-11 5.943615e-01 1.334181e-13 -1.391135e-13
3
Lattice="1.800000e+01 0.000000e+00 0.000000e+00 0.000000e+00 1.800000e+01 0.000000e+00 0.000000e+00 0.000000e+00 1.800000e+01" Properties=species:S:1:pos:R:3:force:R:3 energy=9.497347e-03 dipole="-3.883343e-02 3.313024e-14 9.857333e-15" pol="2.621039e+01 -8.083243e-10 -2.962678e-10 -8.083243e-10 1.212688e+01 3.394885e-12 -2.962678e-10 3.394885e-12 1.212688e+01" pbc="T T T"
O 1.173758e+00 1.868821e-13 -3.518247e-11 -1.431740e+00 -6.315559e-14 3.342954e-13
C -4.637187e-03 -9.472569e-14 -3.494826e-11 1.538336e+00 -2.009587e-13 -2.844651e-13
O -1.166140e+00 -4.559778e-13 -3.471329e-11 -1.066611e-01 3.455340e-13 1.018729e-13
3
Lattice="1.800000e+01 0.000000e+00 0.000000e+00 0.000000e+00 1.800000e+01 0.000000e+00 0.000000e+00 0.000000e+00 1.800000e+01" Properties=species:S:1:pos:R:3:force:R:3 energy=6.969517e-03 dipole="3.790259e-02 -2.817608e-14 -2.232655e-14" pol="2.575464e+01 -2.600658e-10 -4.858203e-10 -2.600658e-10 1.200368e+01 1.444559e-12 -4.858203e-10 1.444559e-12 1.200368e+01" pbc="T T T"
O 1.158928e+00 6.949242e-13 -3.666254e-11 1.277010e+00 -9.328032e-15 -4.788694e-13
C 7.375562e-03 3.660429e-13 -3.627840e-11 -1.600736e+00 1.460119e-13 6.675180e-13
O -1.160462e+00 1.086912e-13 -3.586626e-11 3.238229e-01 -2.473118e-13 -1.804465e-13
3
Lattice="1.800000e+01 0.000000e+00 0.000000e+00 0.000000e+00 1.800000e+01 0.000000e+00 0.000000e+00 0.000000e+00 1.800000e+01" Properties=species:S:1:pos:R:3:force:R:3 energy=6.909353e-03 dipole="-4.050943e-02 -5.028616e-14 1.235033e-14" pol="2.580975e+01 5.022084e-10 -1.316074e-10 5.022084e-10 1.201898e+01 -1.562862e-12 -1.316074e-10 -1.562862e-12 1.201898e+01" pbc="T T T"
O 1.164721e+00 1.101271e-12 -3.791489e-11 -5.106012e-01 -4.853906e-13 1.112283e-13
C -4.924985e-03 8.341443e-13 -3.745136e-11 1.697901e+00 9.674124e-13 -5.509908e-13
O -1.157139e+00 6.566381e-13 -3.697102e-11 -1.187403e+00 -5.064051e-13 4.829147e-13
3
Lattice="1.800000e+01 0.000000e+00 0.000000e+00 0.000000e+00 1.800000e+01 0.000000e+00 0.000000e+00 0.000000e+00 1.800000e+01" Properties=species:S:1:pos:R:3:force:R:3 energy=6.986532e-03 dipole="4.327987e-02 -3.231393e-14 -2.358532e-14" pol="2.594481e+01 -3.460972e-10 -3.575155e-10 -3.460972e-10 1.205601e+01 -2.451585e-12 -3.575155e-10 -2.451585e-12 1.205601e+01" pbc="T T T"
O 1.162772e+00 1.587084e-12 -3.932534e-11 8.895885e-01 -1.387724e-13 -4.812915e-13
C 8.154866e-03 1.392512e-12 -3.879592e-11 -1.780255e+00 3.766221e-13 8.861487e-13
O -1.165154e+00 1.275629e-12 -3.824779e-11 8.907694e-01 -1.677280e-13 -4.765900e-13
3
Lattice="1.800000e+01 0.000000e+00 0.000000e+00 0.000000e+00 1.800000e+01 0.000000e+00 0.000000e+00 0.000000e+00 1.800000e+01" Properties=species:S:1:pos:R:3:force:R:3 energy=5.300009e-03 dipole="-1.950948e-02 -6.266286e-14 -2.337731e-17" pol="2.622705e+01 2.191962e-10 4.140687e-10 2.191962e-10 1.212884e+01 -1.387126e-12 4.140687e-10 -1.387126e-12 1.212884e+01" pbc="T T T"
O 1.172913e+00 1.818168e-12 -3.990256e-11 -1.115720e+00 -7.105354e-13 4.962649e-13
C -1.746149e-03 1.600519e-12 -3.933852e-11 7.702648e-01 1.105730e-12 -2.449286e-13
O -1.167915e+00 1.514782e-12 -3.875876e-11 3.454222e-01 -4.311812e-13 -2.832568e-13
3
Lattice="1.800000e+01 0.000000e+00 0.000000e+00 0.000000e+00 1.800000e+01 0.000000e+00 0.000000e+00 0.000000e+00 1.800000e+01" Properties=species:S:1:pos:R:3:force:R:3 energy=1.671187e-03 dipole="-9.036568e-03 -6.226609e-14 -5.606157e-15" pol="2.614391e+01 7.660888e-10 -2.597444e-11 7.660888e-10 1.210602e+01 -1.850292e-12 -2.597444e-11 -1.850292e-12 1.210602e+01" pbc="T T T"
O 1.170431e+00 2.055563e-12 -4.049089e-11 -7.179890e-01 -6.041606e-13 2.915551e-13
C -1.057526e-04 1.836111e-12 -3.989912e-11 3.608854e-01 1.014310e-12 -6.773670e-14
O -1.166719e+00 1.743725e-12 -3.928510e-11 3.570847e-01 -4.570188e-13 -2.999029e-13
3
Lattice="1.800000e+01 0.000000e+00 0.000000e+00 0.000000e+00 1.800000e+01 0.000000e+00 0.000000e+00 0.000000e+00 1.800000e+01" Properties=species:S:1:pos:R:3:force:R:3 energy=1.430762e-03 dipole="2.300040e-02 4.167346e-14 -2.224881e-15" pol="2.584494e+01 4.350924e-10 -4.411633e-10 4.350924e-10 1.202660e+01 2.539050e-14 -4.411633e-10 2.539050e-14 1.202660e+01" pbc="T T T"
O 1.161668e+00 3.320298e-12 -4.330798e-11 6.998579e-01 4.702374e-13 -2.862060e-13
C 4.819298e-03 3.074204e-12 -4.267066e-11 -9.584494e-01 -7.533029e-13 3.748551e-13
O -1.161936e+00 2.752225e-12 -4.204640e-11 2.586547e-01 3.610641e-13 -1.289444e-13
3
Lattice="1.800000e+01 0.000000e+00 0.000000e+00 0.000000e+00 1.800000e+01 0.000000e+00 0.000000e+00 0.000000e+00 1.800000e+01" Properties=species:S:1:pos:R:3:force:R:3 energy=1.122224e-03 dipole="-5.877297e-03 -6.089819e-14 -1.336353e-14" pol="2.612902e+01 -2.642598e-11 1.806301e-10 -2.642598e-11 1.210195e+01 -3.872380e-12 1.806301e-10 -3.872380e-12 1.210195e+01" pbc="T T T"
O 1.169796e+00 3.523077e-12 -4.366586e-11 -6.200443e-01 -5.846940e-13 2.299126e-13
C 2.758489e-04 3.165358e-12 -4.306107e-11 2.351943e-01 9.620155e-13 1.193743e-13
O -1.166693e+00 2.923520e-12 -4.242830e-11 3.848374e-01 -3.671536e-13 -3.891078e-13
3
Lattice="1.800000e+01 0.000000e+00 0.000000e+00 0.000000e+00 1.800000e+01 0.000000e+00 0.000000e+00 0.000000e+00 1.800000e+01" Properties=species:S:1:pos:R:3:force:R:3 energy=1.665957e-03 dipole="-1.652430e-02 -2.071007e-14 -3.951041e-15" pol="2.575254e+01 -5.856305e-10 -1.341395e-11 -5.856305e-10 1.200118e+01 2.874850e-12 -1.341395e-11 2.874850e-12 1.200118e+01" pbc="T T T"
O 1.161853e+00 4.041151e-12 -4.483713e-11 1.050440e-01 -2.288335e-13 -1.032738e-13
C -1.421250e-03 3.729734e-12 -4.429649e-11 6.974582e-01 4.751091e-13 -2.033220e-13
O -1.157595e+00 3.456847e-12 -4.374107e-11 -8.025483e-01 -3.128336e-13 3.247057e-13
3
Lattice="1.800000e+01 0.000000e+00 0.000000e+00 0.000000e+00 1.800000e+01 0.000000e+00 0.000000e+00 0.000000e+00 1.800000e+01" Properties=species:S:1:pos:R:3:force:R:3 energy=2.928282e-03 dipole="-2.403588e-02 1.470473e-14 2.266739e-14" pol="2.575929e+01 -1.751455e-10 8.873757e-11 -1.751455e-10 1.200352e+01 -2.368902e-12 8.873757e-11 -2.368902e-12 1.200352e+01" pbc="T T T"
O 1.162364e+00 4.688375e-12 -4.645055e-11 -6.332774e-02 1.433688e-13 1.068240e-13
C -2.656974e-03 4.484006e-12 -4.597998e-11 1.013783e+00 -5.428293e-14 -5.411378e-13
O -1.157349e+00 4.245835e-12 -4.552419e-11 -9.505214e-01 -8.318159e-14 4.170030e-13
3
Lattice="1.800000e+01 0.000000e+00 0.000000e+00 0.000000e+00 1.800000e+01 0.000000e+00 0.000000e+00 0.000000e+00 1.800000e+01" Properties=species:S:1:pos:R:3:force:R:3 energy=3.643856e-03 dipole="-3.239407e-02 5.031180e-14 1.933587e-14" pol="2.600926e+01 5.510032e-10 2.569118e-10 5.510032e-10 1.207187e+01 1.152974e-12 2.569118e-10 1.152974e-12 1.207187e+01" pbc="T T T"
O 1.168455e+00 5.039152e-12 -4.728481e-11 -8.421047e-01 2.633191e-13 4.213400e-13
C -4.027185e-03 4.905978e-12 -4.687097e-11 1.319585e+00 -5.593244e-13 -5.722825e-13
O -1.162494e+00 4.665855e-12 -4.647784e-11 -4.775580e-01 3.185249e-13 2.436494e-13
3
Lattice="1.800000e+01 0.000000e+00 0.000000e+00 0.000000e+00 1.800000e+01 0.000000e+00 0.000000e+00 0.000000e+00 1.800000e+01" Properties=species:S:1:pos:R:3:force:R:3 energy=6.792377e-06 dipole="7.640310e-03 -3.594878e-14 -1.604679e-14" pol="2.606525e+01 -2.884675e-11 -2.415424e-10 -2.884675e-11 1.208495e+01 1.332976e-12 -2.415424e-10 1.332976e-12 1.208495e+01" pbc="T T T"
O 1.167391e+00 5.454237e-12 -4.809724e-11 -1.912423e-01 -2.923903e-13 -7.380956e-14
C 2.237495e-03 5.245238e-12 -4.780256e-11 -3.085212e-01 5.158541e-13 2.471591e-13
O -1.166227e+00 5.109703e-12 -4.747932e-11 4.997817e-01 -2.583500e-13 -1.975516e-13
3
Lattice="1.800000e+01 0.000000e+00 0.000000e+00 0.000000e+00 1.800000e+01 0.000000e+00 0.000000e+00 0.000000e+00 1.800000e+01" Properties=species:S:1:pos:R:3:force:R:3 energy=7.705281e-03 dipole="-3.300161e-02 -4.544544e-14 -1.089823e-14" pol="2.620929e+01 -2.652429e-10 -2.109460e-11 -2.652429e-10 1.212567e+01 -2.921655e-12 -2.109460e-11 -2.921655e-12 1.212567e+01" pbc="T T T"
O 1.172847e+00 6.920818e-12 -5.071689e-11 -1.323861e+00 -7.107838e-13 -1.428384e-13
C -4.289147e-03 6.591800e-12 -5.072360e-11 1.307043e+00 9.738523e-13 1.638140e-13
O -1.167070e+00 6.350207e-12 -5.070843e-11 1.676144e-02 -3.371947e-13 -1.172732e-13
3
Lattice="1.800000e+01 0.000000e+00 0.000000e+00 0.000000e+00 1.800000e+01 0.000000e+00 0.000000e+00 0.000000e+00 1.800000e+01" Properties=species:S:1:pos:R:3:force:R:3 energy=4.471185e-03 dipole="3.011734e-02 -2.281284e-14 -4.153438e-15" pol="2.611108e+01 -5.885303e-10 8.001283e-11 -5.885303e-10 1.209895e+01 1.467729e-12 8.001283e-11 1.467729e-12 1.209895e+01" pbc="T T T"
O 1.166841e+00 8.004250e-12 -5.264873e-11 1.676425e-01 -2.303948e-13 -7.322649e-14
C 5.600717e-03 7.651877e-12 -5.286939e-11 -1.209237e+00 1.656699e-13 -1.428005e-14
O -1.168706e+00 7.358568e-12 -5.307003e-11 1.041658e+00 -4.961033e-15 7.816722e-14
3
Lattice="1.800000e+01 0.000000e+00 0.000000e+00 0.000000e+00 1.800000e+01 0.000000e+00 0.000000e+00 0.000000e+00 1.800000e+01" Properties=species:S:1:pos:R:3:force:R:3 energy=4.404782e-03 dipole="-3.594852e-02 -2.531299e-14 -1.145116e-14" pol="2.593338e+01 -5.342812e-10 3.524294e-10 -5.342812e-10 1.205185e+01 3.284950e-12 3.524294e-10 3.284950e-12 1.205185e+01" pbc="T T T"
O 1.166657e+00 8.731668e-12 -5.401524e-11 -7.262178e-01 -2.917355e-13 -2.661106e-13
C -4.850959e-03 8.478365e-12 -5.444660e-11 1.480382e+00 5.589000e-13 5.354008e-13
O -1.160837e+00 8.261685e-12 -5.487832e-11 -7.542547e-01 -3.053824e-13 -3.534321e-13
3
Lattice="1.800000e+01 0.000000e+00 0.000000e+00 0.000000e+00 1.800000e+01 0.000000e+00 0.000000e+00 0.000000e+00 1.800000e+01" Properties=species:S:1:pos:R:3:force:R:3 energy=2.613153e-03 dipole="2.043437e-02 1.952353e-14 1.497556e-14" pol="2.612251e+01 -1.147419e-10 -5.772519e-10 -1.147419e-10 1.210100e+01 -5.578498e-13 -5.772519e-10 -5.578498e-13 1.210100e+01" pbc="T T T"
O 1.167616e+00 9.115367e-12 -5.475217e-11 -6.763712e-02 1.318462e-13 -6.527764e-14
C 3.981861e-03 8.938307e-12 -5.525620e-11 -8.187938e-01 -3.069495e-13 -4.658280e-13
O -1.168520e+00 8.731460e-12 -5.578262e-11 8.864746e-01 1.755466e-13 3.890244e-13
3
Lattice="1.800000e+01 0.000000e+00 0.000000e+00 0.000000e+00 1.800000e+01 0.000000e+00 0.000000e+00 0.000000e+00 1.800000e+01" Properties=species:S:1:pos:R:3:force:R:3 energy=3.899446e-03 dipole="1.434282e-02 -3.297439e-14 3.605534e-15" pol="2.565584e+01 -1.225412e-10 3.438195e-10 -1.225412e-10 1.197487e+01 -9.556406e-14 3.438195e-10 -9.556406e-14 1.197487e+01" pbc="T T T"
O 1.157402e+00 9.732935e-12 -5.578907e-11 1.014069e+00 -5.200922e-14 4.697882e-13
C 2.947827e-03 9.541122e-12 -5.641417e-11 -6.136460e-01 3.779781e-13 -2.675914e-13
O -1.157653e+00 9.411775e-12 -5.703596e-11 -4.003843e-01 -2.927505e-13 -2.898247e-13
3
Lattice="1.800000e+01 0.000000e+00 0.000000e+00 0.000000e+00 1.800000e+01 0.000000e+00 0.000000e+00 0.000000e+00 1.800000e+01" Properties=species:S:1:pos:R:3:force:R:3 energy=5.756134e-03 dipole="-2.202747e-02 -2.432055e-14 -8.028618e-15" pol="2.622765e+01 -1.686788e-10 -3.662605e-11 -1.686788e-10 1.212924e+01 2.479260e-12 -3.662605e-11 2.479260e-12 1.212924e+01" pbc="T T T"
O 1.172407e+00 1.019423e-11 -5.650608e-11 -1.164243e+00 -3.821133e-13 -7.072266e-13
C -2.805331e-03 9.999515e-12 -5.720360e-11 8.696877e-01 5.072294e-13 4.510386e-13
O -1.168431e+00 9.851699e-12 -5.790394e-11 2.945184e-01 -1.590876e-13 1.996836e-13
3
Lattice="1.800000e+01 0.000000e+00 0.000000e+00 0.000000e+00 1.800000e+01 0.000000e+00 0.000000e+00 0.000000e+00 1.800000e+01" Properties=species:S:1:pos:R:3:force:R:3 energy=4.933492e-03 dipole="-2.993283e-02 3.139621e-14 -1.645555e-14" pol="2.573425e+01 -2.818238e-10 -6.995039e-10 -2.818238e-10 1.199726e+01 -1.546111e-12 -6.995039e-10 -1.546111e-12 1.199726e+01" pbc="T T T"
O 1.161638e+00 1.114324e-11 -5.797397e-11 -1.168347e-01 2.677883e-13 -1.003677e-13
C -4.057041e-03 1.094947e-11 -5.872414e-11 1.267264e+00 -2.461425e-13 8.191650e-13
O -1.156897e+00 1.068082e-11 -5.947180e-11 -1.150508e+00 2.553684e-15 -7.519084e-13
3
Lattice="1.800000e+01 0.000000e+00 0.000000e+00 0.000000e+00 1.800000e+01 0.000000e+00 0.000000e+00 0.000000e+00 1.800000e+01" Properties=species:S:1:pos:R:3:force:R:3 energy=9.788381e-04 dipole="-2.264051e-02 -3.601826e-14 -3.364468e-15" pol="2.595640e+01 2.769012e-10 -3.629411e-10 2.769012e-10 1.205661e+01 -2.800046e-12 -3.629411e-10 -2.800046e-12 1.205661e+01" pbc="T T T"
O 1.166079e+00 1.399151e-11 -6.250112e-11 -5.275560e-01 -3.636566e-13 -2.138996e-13
C -3.133749e-03 1.371632e-11 -6.292495e-11 9.287522e-01 6.594902e-13 3.027883e-13
O -1.162565e+00 1.350645e-11 -6.335375e-11 -4.012551e-01 -2.835615e-13 -7.887531e-14
3
Lattice="1.800000e+01 0.000000e+00 0.000000e+00 0.000000e+00 1.800000e+01 0.000000e+00 0.000000e+00 0.000000e+00 1.800000e+01" Properties=species:S:1:pos:R:3:force:R:3 energy=2.138071e-03 dipole="7.847693e-03 4.926826e-15 4.540677e-16" pol="2.569232e+01 -3.205963e-11 -1.636536e-10 -3.205963e-11 1.198454e+01 -5.043844e-13 -1.636536e-10 -5.043844e-13 1.198454e+01" pbc="T T T"
O 1.158315e+00 1.421500e-11 -6.288058e-11 7.739616e-01 1.312230e-13 2.175283e-13
C 1.629730e-03 1.399429e-11 -6.327030e-11 -3.339958e-01 -1.191082e-13 -1.177482e-14
O -1.158422e+00 1.376532e-11 -6.365557e-11 -4.399440e-01 -2.527848e-14 -7.675266e-14
3
Lattice="1.800000e+01 0.000000e+00 0.000000e+00 0.000000e+00 1.800000e+01 0.000000e+00 0.000000e+00 0.000000e+00 1.800000e+01" Properties=species:S:1:pos:R:3:force:R:3 energy=1.112178e-02 dipole="-4.058960e-02 6.104282e-14 -3.526554e-15" pol="2.624327e+01 7.763365e-10 -1.544544e-11 7.763365e-10 1.213601e+01 1.710446e-13 -1.544544e-11 1.710446e-13 1.213601e+01" pbc="T T T"
O 1.173435e+00 1.495496e-11 -6.407480e-11 -1.538049e+00 3.077945e-13 -2.942368e-13
C -6.072928e-03 1.483065e-11 -6.431945e-11 1.600674e+00 -8.060351e-13 2.968872e-13
O -1.167909e+00 1.456819e-11 -6.456755e-11 -6.268675e-02 4.558200e-13 -4.438800e-14
3
Lattice="1.800000e+01 0.000000e+00 0.000000e+00 0.000000e+00 1.800000e+01 0.000000e+00 0.000000e+00 0.000000e+00 1.800000e+01" Properties=species:S:1:pos:R:3:force:R:3 energy=3.619249e-03 dipole="-3.288284e-02 3.564701e-14 -5.685036e-15" pol="2.588280e+01 1.454628e-09 7.575993e-10 1.454628e-09 1.203780e+01 5.682265e-12 7.575993e-10 5.682265e-12 1.203780e+01" pbc="T T T"
O 1.164844e+00 1.592906e-11 -6.543594e-11 -5.446134e-01 2.565022e-13 3.455759e-14
C -4.864895e-03 1.578031e-11 -6.554439e-11 1.363573e+00 -3.760434e-13 1.796706e-13
O -1.160396e+00 1.555191e-11 -6.564967e-11 -8.190458e-01 1.865614e-13 -1.135398e-13
3
Lattice="1.800000e+01 0.000000e+00 0.000000e+00 0.000000e+00 1.800000e+01 0.000000e+00 0.000000e+00 0.000000e+00 1.800000e+01" Properties=species:S:1:pos:R:3:force:R:3 energy=8.678554e-03 dipole="4.262262e-02 4.680969e-14 1.422082e-14" pol="2.575645e+01 7.527834e-11 -6.205297e-10 7.527834e-11 1.200479e+01 -1.517576e-12 -6.205297e-10 -1.517576e-12 1.200479e+01" pbc="T T T"
O 1.157480e+00 1.625267e-11 -6.584512e-11 1.381195e+00 4.687491e-13 1.391113e-13
C 6.925959e-03 1.609342e-11 -6.592129e-11 -1.800131e+00 -8.746391e-13 -1.572067e-13
O -1.161943e+00 1.584780e-11 -6.601018e-11 4.190426e-01 3.534092e-13 1.744842e-14
3
Lattice="1.800000e+01 0.000000e+00 0.000000e+00 0.000000e+00 1.800000e+01 0.000000e+00 0.000000e+00 0.000000e+00 1.800000e+01" Properties=species:S:1:pos:R:3:force:R:3 energy=3.375962e-03 dipole="3.253290e-02 6.684584e-14 6.692734e-15" pol="2.594818e+01 2.996676e-10 -6.560397e-10 2.996676e-10 1.205542e+01 4.037097e-12 -6.560397e-10 4.037097e-12 1.205542e+01" pbc="T T T"
O 1.162416e+00 1.676373e-11 -6.645085e-11 6.393369e-01 5.999104e-13 1.231883e-13
C 5.344306e-03 1.659134e-11 -6.651363e-11 -1.336689e+00 -1.127894e-12 -1.301814e-13
O -1.165779e+00 1.629582e-11 -6.659069e-11 6.974344e-01 6.176845e-13 9.922860e-14
3
Lattice="1.800000e+01 0.000000e+00 0.000000e+00 0.000000e+00 1.800000e+01 0.000000e+00 0.000000e+00 0.000000e+00 1.800000e+01" Properties=species:S:1:pos:R:3:force:R:3 energy=1.556079e-03 dipole="-2.531364e-02 4.816648e-15 6.589232e-16" pol="2.590245e+01 -6.311747e-11 6.938600e-11 -6.311747e-11 1.204232e+01 -7.858312e-13 6.938600e-11 -7.858312e-13 1.204232e+01" pbc="T T T"
O 1.167313e+00 -7.495660e-15 4.981139e-15 -4.468391e-01 -4.319465e-14 5.404594e-14
C -1.242197e-03 -7.326473e-16 3.544490e-15 1.046434e+00 -4.385188e-14 5.535170e-15
O -1.158877e+00 2.424927e-15 3.214114e-15 -5.996624e-01 -3.099301e-14 4.664227e-14
3
Lattice="1.800000e+01 0.000000e+00 0.000000e+00 0.000000e+00 1.800000e+01 0.000000e+00 0.000000e+00 0.000000e+00 1.800000e+01" Properties=species:S:1:pos:R:3:force:R:3 energy=4.082248e-03 dipole="-1.472854e-02 1.517396e-16 -1.624117e-15" pol="2.565182e+01 -6.120061e-11 -3.078866e-11 -6.120061e-11 1.197380e+01 -2.966113e-12 -3.078866e-11 -2.966113e-12 1.197380e+01" pbc="T T T"
O 1.161022e+00 -3.031210e-14 1.503212e-14 4.029338e-01 -8.220809e-14 -2.559950e-14
C 4.308349e-04 -1.345746e-14 7.914815e-15 6.305109e-01 4.160227e-14 -1.351714e-14
O -1.153849e+00 7.313722e-15 -3.067925e-15 -1.033484e+00 3.724989e-14 6.511267e-14
3
Lattice="1.800000e+01 0.000000e+00 0.000000e+00 0.000000e+00 1.800000e+01 0.000000e+00 0.000000e+00 0.000000e+00 1.800000e+01" Properties=species:S:1:pos:R:3:force:R:3 energy=9.806590e-03 dipole="3.646094e-02 -2.704171e-15 4.973737e-15" pol="2.624360e+01 -3.923706e-10 -9.640766e-12 -3.923706e-10 1.213539e+01 1.038398e-13 -9.640766e-12 1.038398e-13 1.213539e+01" pbc="T T T"
O 1.171268e+00 -2.004624e-13 1.179791e-13 -2.765697e-02 7.751663e-14 9.127718e-14
C 8.499427e-03 -3.647481e-14 1.470517e-14 -1.437391e+00 1.368554e-13 -1.625113e-13
O -1.170143e+00 1.244366e-13 -9.301474e-14 1.465104e+00 -1.769978e-13 1.362736e-13
3
Lattice="1.800000e+01 0.000000e+00 0.000000e+00 0.000000e+00 1.800000e+01 0.000000e+00 0.000000e+00 0.000000e+00 1.800000e+01" Properties=species:S:1:pos:R:3:force:R:3 energy=6.481732e-04 dipole="4.942179e-03 -5.546437e-15 1.385996e-15" pol="2.610899e+01 6.372733e-10 -3.465297e-10 6.372733e-10 1.209658e+01 -1.094608e-12 -3.465297e-10 -1.094608e-12 1.209658e+01" pbc="T T T"
O 1.170231e+00 -2.579209e-13 1.599390e-13 -3.546090e-01 7.904110e-14 -8.830677e-14
C 3.508426e-03 -4.851741e-14 2.060660e-14 -1.983283e-01 6.919282e-14 -2.259421e-14
O -1.165359e+00 1.664903e-13 -1.181846e-13 5.529483e-01 -1.477130e-13 7.769517e-14
3
Lattice="1.800000e+01 0.000000e+00 0.000000e+00 0.000000e+00 1.800000e+01 0.000000e+00 0.000000e+00 0.000000e+00 1.800000e+01" Properties=species:S:1:pos:R:3:force:R:3 energy=2.549703e-03 dipole="2.224302e-02 -2.181419e-14 9.985202e-15" pol="2.610324e+01 5.148638e-10 2.669623e-10 5.148638e-10 1.209600e+01 -2.856236e-12 2.669623e-10 -2.856236e-12 1.209600e+01" pbc="T T T"
O 1.169041e+00 -1.064561e-12 7.485392e-13 1.883239e-02 -4.363771e-14 5.969031e-15
C 6.235548e-03 -4.049952e-13 2.296477e-13 -8.937485e-01 6.081449e-13 -3.925795e-13
O -1.166218e+00 2.786195e-13 -2.937686e-13 8.749650e-01 -5.758589e-13 3.971672e-13
3
Lattice="1.800000e+01 0.000000e+00 0.000000e+00 0.000000e+00 1.800000e+01 0.000000e+00 0.000000e+00 0.000000e+00 1.800000e+01" Properties=species:S:1:pos:R:3:force:R:3 energy=2.751656e-03 dipole="-6.168772e-03 -7.041194e-15 -2.614696e-15" pol="2.619122e+01 -2.216982e-12 -3.938520e-10 -2.216982e-12 1.211855e+01 1.544054e-12 -3.938520e-10 1.544054e-12 1.211855e+01" pbc="T T T"
O 1.172735e+00 -1.198259e-12 8.311965e-13 -7.754348e-01 5.024652e-13 -3.352629e-13
C 1.754102e-03 -4.878427e-13 2.839628e-13 2.447017e-01 -3.272438e-14 1.323834e-13
O -1.166544e+00 2.386045e-13 -2.639759e-13 5.307214e-01 -3.989645e-13 2.848247e-13
3
Lattice="1.800000e+01 0.000000e+00 0.000000e+00 0.000000e+00 1.800000e+01 0.000000e+00 0.000000e+00 0.000000e+00 1.800000e+01" Properties=species:S:1:pos:R:3:force:R:3 energy=4.183701e-03 dipole="3.253566e-02 -2.731133e-14 1.991807e-14" pol="2.605470e+01 -1.573539e-11 -2.210217e-10 -1.573539e-11 1.208411e+01 -1.635409e-12 -2.210217e-10 -1.635409e-12 1.208411e+01" pbc="T T T"
O 1.167296e+00 -1.613929e-12 1.248575e-12 3.637538e-01 -2.162504e-13 1.277076e-13
C 7.847829e-03 -9.093196e-13 6.214004e-13 -1.316914e+00 9.020631e-13 -6.927358e-13
O -1.165694e+00 -1.830957e-13 -1.706457e-14 9.532343e-01 -6.519429e-13 5.251105e-13
3
Lattice="1.800000e+01 0.000000e+00 0.000000e+00 0.000000e+00 1.800000e+01 0.000000e+00 0.000000e+00 0.000000e+00 1.800000e+01" Properties=species:S:1:pos:R:3:force:R:3 energy=-8.904573e-04 dipole="1.546994e-03 4.219695e-15 2.090712e-15" pol="2.601400e+01 -5.496254e-10 -2.973751e-10 -5.496254e-10 1.207113e+01 3.239078e-13 -2.973751e-10 3.239078e-13 1.207113e+01" pbc="T T T"
O 1.168294e+00 -1.687769e-12 1.388885e-12 -1.884485e-01 9.539301e-14 -1.505928e-13
C 2.969637e-03 -1.054312e-12 7.547193e-13 -6.289165e-02 -3.371681e-14 -2.652238e-14
O -1.163024e+00 -4.289098e-13 1.184847e-13 2.513441e-01 -1.117722e-13 7.036854e-14
3
Lattice="1.800000e+01 0.000000e+00 0.000000e+00 0.000000e+00 1.800000e+01 0.000000e+00 0.000000e+00 0.000000e+00 1.800000e+01" Properties=species:S:1:pos:R:3:force:R:3 energy=-1.151737e-03 dipole="-6.422595e-03 -7.356606e-15 2.879676e-15" pol="2.593428e+01 -3.200799e-10 -4.385503e-10 -3.200799e-10 1.204979e+01 -3.310356e-12 -4.385503e-10 -3.310356e-12 1.204979e+01" pbc="T T T"
O 1.166961e+00 -1.947577e-12 1.784391e-12 -1.510685e-01 -3.850956e-14 -4.649375e-14
C 1.717302e-03 -1.642559e-12 1.275088e-12 2.641768e-01 5.342875e-14 1.287182e-13
O -1.160753e+00 -1.319082e-12 7.647309e-13 -1.131258e-01 -7.039273e-14 -8.222657e-14
3
Lattice="1.800000e+01 0.000000e+00 0.000000e+00 0.000000e+00 1.800000e+01 0.000000e+00 0.000000e+00 0.000000e+00 1.800000e+01" Properties=species:S:1:pos:R:3:force:R:3 energy=5.453895e-03 dipole="-2.112514e-02 1.183860e-14 -8.343459e-15" pol="2.564286e+01 -4.992557e-10 1.592937e-10 -4.992557e-10 1.197172e+01 -2.457842e-12 1.592937e-10 -2.457842e-12 1.197172e+01" pbc="T T T"
O 1.161176e+00 -1.999084e-12 1.904870e-12 2.947874e-01 -3.250932e-14 9.483465e-14
C -5.658096e-04 -1.796074e-12 1.437348e-12 9.056380e-01 -2.848359e-13 4.205206e-13
O -1.153258e+00 -1.611217e-12 9.728319e-13 -1.200481e+00 3.534954e-13 -6.039440e-13
3
Lattice="1.800000e+01 0.000000e+00 0.000000e+00 0.000000e+00 1.800000e+01 0.000000e+00 0.000000e+00 0.000000e+00 1.800000e+01" Properties=species:S:1:pos:R:3:force:R:3 energy=3.154379e-03 dipole="3.371102e-04 -1.609594e-14 3.023919e-15" pol="2.620974e+01 2.191790e-10 2.820408e-10 2.191790e-10 1.212343e+01 -1.644972e-12 2.820408e-10 -1.644972e-12 1.212343e+01" pbc="T T T"
O 1.172764e+00 -2.099829e-12 2.082835e-12 -6.919371e-01 -1.501102e-13 -2.112822e-13
C 2.779519e-03 -2.077926e-12 1.703289e-12 -1.333147e-02 2.992311e-13 -2.294912e-14
O -1.167352e+00 -2.015122e-12 1.319569e-12 7.052692e-01 -2.124895e-13 2.951659e-13
3
Lattice="1.800000e+01 0.000000e+00 0.000000e+00 0.000000e+00 1.800000e+01 0.000000e+00 0.000000e+00 0.000000e+00 1.800000e+01" Properties=species:S:1:pos:R:3:force:R:3 energy=2.560622e-03 dipole="-2.918420e-02 2.007199e-14 -3.075756e-15" pol="2.597751e+01 -1.297512e-10 -3.657957e-10 -1.297512e-10 1.206294e+01 2.305593e-13 -3.657957e-10 2.305593e-13 1.206294e+01" pbc="T T T"
O 1.169224e+00 -2.218893e-12 2.181611e-12 -7.048468e-01 1.214380e-13 -1.033398e-13
C -1.857681e-03 -2.253272e-12 1.914869e-12 1.193961e+00 -2.082193e-13 2.795241e-13
O -1.160323e+00 -2.324959e-12 1.651071e-12 -4.891871e-01 3.250989e-14 -1.241144e-13
3
Lattice="1.800000e+01 0.000000e+00 0.000000e+00 0.000000e+00 1.800000e+01 0.000000e+00 0.000000e+00 0.000000e+00 1.800000e+01" Properties=species:S:1:pos:R:3:force:R:3 energy=4.172317e-03 dipole="-3.189937e-02 8.062341e-15 -6.191019e-15" pol="2.580295e+01 -9.864255e-11 5.558731e-10 -9.864255e-11 1.201608e+01 6.842444e-13 5.558731e-10 6.842444e-13 1.201608e+01" pbc="T T T"
O 1.165420e+00 -2.288082e-12 2.249831e-12 -3.280450e-01 1.021975e-13 -6.881913e-14
C -2.260336e-03 -2.400534e-12 2.074022e-12 1.337663e+00 -7.595730e-14 2.154219e-13
O -1.156216e+00 -2.540209e-12 1.900872e-12 -1.009702e+00 2.059977e-14 -1.860090e-13
3
Lattice="1.800000e+01 0.000000e+00 0.000000e+00 0.000000e+00 1.800000e+01 0.000000e+00 0.000000e+00 0.000000e+00 1.800000e+01" Properties=species:S:1:pos:R:3:force:R:3 energy=6.697645e-03 dipole="-2.909176e-02 -1.004397e-14 1.226511e-15" pol="2.566191e+01 8.074553e-10 7.441308e-10 8.074553e-10 1.197753e+01 9.634309e-13 7.441308e-10 9.634309e-13 1.197753e+01" pbc="T T T"
O 1.162052e+00 -2.493569e-12 2.671463e-12 8.444906e-02 2.567337e-14 5.082458e-15
C -1.808918e-03 -2.929848e-12 2.711051e-12 1.244198e+00 4.954325e-13 -1.619019e-14
O -1.153200e+00 -3.360138e-12 2.750558e-12 -1.328722e+00 -4.969038e-13 8.183447e-14
3
Lattice="1.800000e+01 0.000000e+00 0.000000e+00 0.000000e+00 1.800000e+01 0.000000e+00 0.000000e+00 0.000000e+00 1.800000e+01" Properties=species:S:1:pos:R:3:force:R:3 energy=1.999903e-03 dipole="1.073308e-02 -6.599413e-15 -5.924693e-15" pol="2.615150e+01 -6.038031e-11 -1.218390e-10 -6.038031e-11 1.210811e+01 5.438411e-13 -1.218390e-10 5.438411e-13 1.210811e+01" pbc="T T T"
O 1.170835e+00 -2.702565e-12 3.023790e-12 -3.410141e-01 -2.533161e-13 1.394034e-13
C 4.423530e-03 -3.424138e-12 3.396858e-12 -4.281946e-01 -1.925467e-14 1.250945e-13
O -1.166650e+00 -4.121253e-12 3.774583e-12 7.692308e-01 2.934042e-13 -2.531368e-13
3
Lattice="1.800000e+01 0.000000e+00 0.000000e+00 0.000000e+00 1.800000e+01 0.000000e+00 0.000000e+00 0.000000e+00 1.800000e+01" Properties=species:S:1:pos:R:3:force:R:3 energy=2.045925e-03 dipole="4.713808e-03 -7.969461e-15 -5.702939e-15" pol="2.616847e+01 2.781664e-10 -6.378767e-10 2.781664e-10 1.211246e+01 4.896128e-13 -6.378767e-10 4.896128e-13 1.211246e+01" pbc="T T T"
O 1.171579e+00 -3.409046e-12 3.520646e-12 -5.047593e-01 -3.946484e-13 3.083074e-13
C 3.472444e-03 -4.088609e-12 4.225918e-12 -1.875805e-01 7.099601e-14 1.458506e-13
O -1.166682e+00 -4.747181e-12 4.938246e-12 6.923493e-01 2.257922e-13 -4.562303e-13
3
Lattice="1.800000e+01 0.000000e+00 0.000000e+00 0.000000e+00 1.800000e+01 0.000000e+00 0.000000e+00 0.000000e+00 1.800000e+01" Properties=species:S:1:pos:R:3:force:R:3 energy=7.305331e-03 dipole="3.330457e-02 1.511669e-14 -1.630162e-14" pol="2.568197e+01 1.773100e-10 6.524791e-10 1.773100e-10 1.198340e+01 -1.685455e-12 6.524791e-10 -1.685455e-12 1.198340e+01" pbc="T T T"
O 1.158845e+00 -3.631665e-12 3.620201e-12 1.370114e+00 6.021286e-13 -8.256819e-13
C 7.920941e-03 -4.205555e-12 4.357614e-12 -1.420638e+00 -5.987212e-13 8.640451e-13
O -1.157286e+00 -4.781351e-12 5.099629e-12 5.060815e-02 4.946039e-15 -6.171538e-14
3
Lattice="1.800000e+01 0.000000e+00 0.000000e+00 0.000000e+00 1.800000e+01 0.000000e+00 0.000000e+00 0.000000e+00 1.800000e+01" Properties=species:S:1:pos:R:3:force:R:3 energy=-1.127788e-03 dipole="-5.138157e-03 1.262915e-15 -4.862139e-15" pol="2.588608e+01 -1.226912e-10 -7.239798e-11 -1.226912e-10 1.203681e+01 -2.996903e-13 -7.239798e-11 -2.996903e-13 1.203681e+01" pbc="T T T"
O 1.165799e+00 -3.727620e-12 3.666651e-12 -3.378971e-03 -1.954965e-14 -1.148021e-14
C 1.922903e-03 -4.263488e-12 4.411578e-12 2.127794e-01 1.168363e-13 -7.038939e-14
O -1.159737e+00 -4.801482e-12 5.166596e-12 -2.094148e-01 -1.432818e-13 1.229229e-13
3
Lattice="1.800000e+01 0.000000e+00 0.000000e+00 0.000000e+00 1.800000e+01 0.000000e+00 0.000000e+00 0.000000e+00 1.800000e+01" Properties=species:S:1:pos:R:3:force:R:3 energy=2.209174e-04 dipole="7.256303e-03 -1.730051e-15 -1.678651e-15" pol="2.577533e+01 2.232685e-10 -5.893295e-10 2.232685e-10 1.200698e+01 1.560750e-12 -5.893295e-10 1.560750e-12 1.200698e+01" pbc="T T T"
O 1.162556e+00 -3.971842e-12 3.828243e-12 5.416069e-01 1.095149e-13 -2.810627e-13
C 3.859934e-03 -4.411190e-12 4.558931e-12 -3.052342e-01 -7.264955e-14 1.074576e-13
O -1.157956e+00 -4.847824e-12 5.284926e-12 -2.363520e-01 -7.572438e-14 1.576755e-13
3
Lattice="1.800000e+01 0.000000e+00 0.000000e+00 0.000000e+00 1.800000e+01 0.000000e+00 0.000000e+00 0.000000e+00 1.800000e+01" Properties=species:S:1:pos:R:3:force:R:3 energy=4.169289e-03 dipole="3.053219e-02 1.366873e-14 -2.274707e-14" pol="2.577954e+01 -8.544078e-11 -1.053296e-09 -8.544078e-11 1.200960e+01 2.172404e-13 -1.053296e-09 2.172404e-13 1.200960e+01" pbc="T T T"
O 1.161226e+00 -4.398401e-12 4.135646e-12 1.041731e+00 2.288022e-13 -5.624157e-13
C 7.496763e-03 -4.607879e-12 4.759377e-12 -1.284468e+00 -3.731119e-13 7.555518e-13
O -1.159360e+00 -4.839959e-12 5.400985e-12 2.428181e-01 9.794605e-14 -1.739967e-13
3
Lattice="1.800000e+01 0.000000e+00 0.000000e+00 0.000000e+00 1.800000e+01 0.000000e+00 0.000000e+00 0.000000e+00 1.800000e+01" Properties=species:S:1:pos:R:3:force:R:3 energy=-7.635997e-04 dipole="2.862528e-03 9.653208e-15 -9.240570e-15" pol="2.582964e+01 4.485901e-10 1.797580e-10 4.485901e-10 1.202157e+01 -9.737056e-13 1.797580e-10 -9.737056e-13 1.202157e+01" pbc="T T T"
O 1.164049e+00 -4.561609e-12 4.265811e-12 3.069872e-01 1.232621e-13 -1.766703e-13
C 3.173973e-03 -4.678725e-12 4.836522e-12 -1.194762e-01 -1.394664e-13 1.197106e-13
O -1.158933e+00 -4.814402e-12 5.419107e-12 -1.875028e-01 8.907357e-14 4.037430e-15
3
Lattice="1.800000e+01 0.000000e+00 0.000000e+00 0.000000e+00 1.800000e+01 0.000000e+00 0.000000e+00 0.000000e+00 1.800000e+01" Properties=species:S:1:pos:R:3:force:R:3 energy=1.031015e-03 dipole="5.264835e-03 1.995266e-15 -5.766083e-15" pol="2.612625e+01 -1.168575e-10 -2.875870e-10 -1.168575e-10 1.210120e+01 -1.315020e-12 -2.875870e-10 -1.315020e-12 1.210120e+01" pbc="T T T"
O 1.170599e+00 -4.762890e-12 4.437717e-12 -3.904771e-01 1.985292e-15 1.273517e-13
C 3.559040e-03 -4.778007e-12 4.932256e-12 -2.107641e-01 2.377466e-14 7.119155e-14
O -1.165766e+00 -4.791302e-12 5.431084e-12 6.012527e-01 -1.021282e-14 -1.988916e-13
3
Lattice="1.800000e+01 0.000000e+00 0.000000e+00 0.000000e+00 1.800000e+01 0.000000e+00 0.000000e+00 0.000000e+00 1.800000e+01" Properties=species:S:1:pos:R:3:force:R:3 energy=7.617870e-03 dipole="-3.566617e-02 1.920229e-14 -1.072872e-14" pol="2.617925e+01 3.673736e-10 -7.197020e-11 3.673736e-10 1.211801e+01 -1.400444e-12 -7.197020e-11 -1.400444e-12 1.211801e+01" pbc="T T T"
O 1.174111e+00 -5.427493e-12 4.980786e-12 -1.302911e+00 4.612348e-13 1.228455e-13
C -2.911502e-03 -5.072111e-12 5.149255e-12 1.418788e+00 -5.284887e-13 -2.364164e-15
O -1.164432e+00 -4.736682e-12 5.344162e-12 -1.159416e-01 6.248368e-14 -4.755916e-14
3
Lattice="1.800000e+01 0.000000e+00 0.000000e+00 0.000000e+00 1.800000e+01 0.000000e+00 0.000000e+00 0.000000e+00 1.800000e+01" Properties=species:S:1:pos:R:3:force:R:3 energy=1.239210e-03 dipole="2.266350e-02 -1.965264e-14 1.747104e-14" pol="2.585844e+01 -3.042706e-10 6.435390e-10 -3.042706e-10 1.203022e+01 1.479111e-12 6.435390e-10 1.479111e-12 1.203022e+01" pbc="T T T"
O 1.163500e+00 -5.663827e-12 5.150688e-12 6.569304e-01 -3.521319e-13 7.716578e-14
C 6.274465e-03 -5.212620e-12 5.232597e-12 -9.426067e-01 5.372040e-13 -2.168468e-13
O -1.160717e+00 -4.733609e-12 5.279212e-12 2.857384e-01 -1.988924e-13 9.342460e-14
3
Lattice="1.800000e+01 0.000000e+00 0.000000e+00 0.000000e+00 1.800000e+01 0.000000e+00 0.000000e+00 0.000000e+00 1.800000e+01" Properties=species:S:1:pos:R:3:force:R:3 energy=1.757258e-03 dipole="-2.550571e-02 -3.556763e-15 1.686944e-14" pol="2.587141e+01 -1.015487e-10 -3.298708e-10 -1.015487e-10 1.203396e+01 -3.207124e-12 -3.298708e-10 -3.207124e-12 1.203396e+01" pbc="T T T"
O 1.166619e+00 -5.829453e-12 5.258756e-12 -3.737850e-01 8.051806e-14 1.742159e-13
C -1.270611e-03 -5.300922e-12 5.274780e-12 1.058998e+00 -3.609095e-13 -2.636743e-13
O -1.158166e+00 -4.757000e-12 5.252453e-12 -6.852815e-01 2.493406e-13 9.188775e-14
3
Lattice="1.800000e+01 0.000000e+00 0.000000e+00 0.000000e+00 1.800000e+01 0.000000e+00 0.000000e+00 0.000000e+00 1.800000e+01" Properties=species:S:1:pos:R:3:force:R:3 energy=2.681627e-03 dipole="-2.997980e-02 2.787392e-14 -2.274781e-14" pol="2.591175e+01 -3.034108e-11 -4.602764e-10 -3.034108e-11 1.204530e+01 2.842028e-12 -4.602764e-10 2.842028e-12 1.204530e+01" pbc="T T T"
O 1.167781e+00 -6.107799e-12 5.444936e-12 -5.599046e-01 3.593690e-13 -2.479525e-13
C -1.974551e-03 -5.444259e-12 5.314740e-12 1.237960e+00 -8.691690e-13 4.154864e-13
O -1.158793e+00 -4.809761e-12 5.226508e-12 -6.781335e-01 3.321850e-13 -2.333697e-13
3
Lattice="1.800000e+01 0.000000e+00 0.000000e+00 0.000000e+00 1.800000e+01 0.000000e+00 0.000000e+00 0.000000e+00 1.800000e+01" Properties=species:S:1:pos:R:3:force:R:3 energy=3.564085e-03 dipole="3.636527e-03 1.043031e-14 -2.269043e-14" pol="2.622089e+01 -5.087849e-10 2.204932e-11 -5.087849e-10 1.212640e+01 2.624842e-12 2.204932e-11 2.624842e-12 1.212640e+01" pbc="T T T"
O 1.172817e+00 -6.496343e-12 5.780294e-12 -6.531392e-01 6.259036e-13 -3.832995e-13
C 3.301552e-03 -5.702911e-12 5.453300e-12 -1.436375e-01 -1.665184e-13 3.502978e-13
O -1.167796e+00 -4.936782e-12 5.173816e-12 7.967831e-01 -4.425261e-13 2.212331e-14
3
Lattice="1.800000e+01 0.000000e+00 0.000000e+00 0.000000e+00 1.800000e+01 0.000000e+00 0.000000e+00 0.000000e+00 1.800000e+01" Properties=species:S:1:pos:R:3:force:R:3 energy=2.759720e-03 dipole="-1.688411e-02 -2.510708e-15 3.564644e-15" pol="2.570782e+01 -1.552462e-10 -1.651160e-10 -1.552462e-10 1.198909e+01 3.690197e-12 -1.651160e-10 3.690197e-12 1.198909e+01" pbc="T T T"
O 1.162419e+00 -6.839627e-12 6.093286e-12 2.128826e-01 -1.569146e-13 1.782864e-13
C 8.942290e-05 -6.041427e-12 5.643266e-12 7.171522e-01 -3.843639e-13 9.615806e-14
O -1.154994e+00 -5.226227e-12 5.166964e-12 -9.300812e-01 6.033848e-13 -3.289405e-13
3
Lattice="1.800000e+01 0.000000e+00 0.000000e+00 0.000000e+00 1.800000e+01 0.000000e+00 0.000000e+00 0.000000e+00 1.800000e+01" Properties=species:S:1:pos:R:3:force:R:3 energy=-1.243373e-03 dipole="3.549754e-03 6.501976e-15 -1.163540e-14" pol="2.590019e+01 -3.460215e-10 -7.125126e-10 -3.460215e-10 1.204058e+01 5.419018e-13 -7.125126e-10 5.419018e-13 1.204058e+01" pbc="T T T"
O 1.165604e+00 -6.936969e-12 6.210894e-12 1.401019e-01 -1.810607e-15 -4.781063e-14
C 3.281231e-03 -6.142543e-12 5.685516e-12 -1.467006e-01 -9.714656e-14 1.504080e-13
O -1.160573e+00 -5.365633e-12 5.187968e-12 6.608542e-03 4.201128e-14 -6.120621e-14
3
Lattice="1.800000e+01 0.000000e+00 0.000000e+00 0.000000e+00 1.800000e+01 0.000000e+00 0.000000e+00 0.000000e+00 1.800000e+01" Properties=species:S:1:pos:R:3:force:R:3 energy=1.085782e-02 dipole="4.445612e-02 -1.230455e-14 -2.597030e-15" pol="2.618902e+01 -4.806179e-10 -4.391201e-10 -4.806179e-10 1.212214e+01 -6.573646e-12 -4.391201e-10 -6.573646e-12 1.212214e+01" pbc="T T T"
O 1.169523e+00 -7.014853e-12 6.326803e-12 2.840180e-01 2.292932e-14 -1.304492e-13
C 9.751894e-03 -6.254625e-12 5.745267e-12 -1.767089e+00 8.296384e-13 -3.960423e-13
O -1.169346e+00 -5.520396e-12 5.206018e-12 1.483147e+00 -7.098691e-13 4.923580e-13
3
Lattice="1.800000e+01 0.000000e+00 0.000000e+00 0.000000e+00 1.800000e+01 0.000000e+00 0.000000e+00 0.000000e+00 1.800000e+01" Properties=species:S:1:pos:R:3:force:R:3 energy=9.478077e-03 dipole="3.779700e-02 -1.887509e-14 1.460838e-14" pol="2.566007e+01 6.246451e-10 2.482523e-11 6.246451e-10 1.197794e+01 2.738744e-12 2.482523e-11 2.738744e-12 1.197794e+01" pbc="T T T"
O 1.158065e+00 -7.151034e-12 6.577226e-12 1.534405e+00 -7.610288e-13 8.279920e-13
C 8.617285e-03 -6.540960e-12 5.939292e-12 -1.617612e+00 7.787915e-13 -7.991606e-13
O -1.157030e+00 -5.928731e-12 5.304598e-12 8.329900e-02 -3.561153e-14 5.999878e-14
3
Lattice="1.800000e+01 0.000000e+00 0.000000e+00 0.000000e+00 1.800000e+01 0.000000e+00 0.000000e+00 0.000000e+00 1.800000e+01" Properties=species:S:1:pos:R:3:force:R:3 energy=2.387040e-03 dipole="2.412441e-03 -2.263802e-14 2.745713e-14" pol="2.618330e+01 -2.315336e-11 2.831175e-10 -2.315336e-11 1.211638e+01 -1.490985e-12 2.831175e-10 -1.490985e-12 1.211638e+01" pbc="T T T"
O 1.172049e+00 -7.216800e-12 6.684871e-12 -5.868839e-01 1.352925e-13 -2.393853e-13
C 3.109005e-03 -6.680059e-12 6.049906e-12 -9.578427e-02 3.582520e-13 -4.635159e-13
O -1.166880e+00 -6.099402e-12 5.357809e-12 6.826729e-01 -5.528122e-13 6.646186e-13
3
Lattice="1.800000e+01 0.000000e+00 0.000000e+00 0.000000e+00 1.800000e+01 0.000000e+00 0.000000e+00 0.000000e+00 1.800000e+01" Properties=species:S:1:pos:R:3:force:R:3 energy=4.609658e-03 dipole="1.756843e-02 -2.923324e-14 3.939503e-14" pol="2.621495e+01 -3.281249e-10 -4.291886e-10 -3.281249e-10 1.212546e+01 -7.184995e-13 -4.291886e-10 -7.184995e-13 1.212546e+01" pbc="T T T"
O 1.171830e+00 -7.417429e-12 6.949475e-12 -3.559855e-01 -4.576477e-14 4.220368e-16
C 5.502919e-03 -7.032095e-12 6.314292e-12 -6.947688e-01 5.861478e-13 -7.974268e-13
O -1.168468e+00 -6.596902e-12 5.615252e-12 1.050785e+00 -5.453314e-13 8.024278e-13
3
Lattice="1.800000e+01 0.000000e+00 0.000000e+00 0.000000e+00 1.800000e+01 0.000000e+00 0.000000e+00 0.000000e+00 1.800000e+01" Properties=species:S:1:pos:R:3:force:R:3 energy=4.661786e-03 dipole="-1.374066e-02 -4.709484e-15 -4.606391e-15" pol="2.563086e+01 -1.401109e-10 -6.477059e-10 -1.401109e-10 1.196806e+01 4.494011e-14 -6.477059e-10 4.494011e-14 1.196806e+01" pbc="T T T"
O 1.160486e+00 -7.520601e-12 7.095446e-12 4.784717e-01 -1.510768e-13 3.184650e-13
C 5.841006e-04 -7.236948e-12 6.463326e-12 5.899457e-01 -7.746347e-14 2.870967e-13
O -1.153433e+00 -6.939627e-12 5.829645e-12 -1.068454e+00 2.288609e-13 -6.220349e-13
3
Lattice="1.800000e+01 0.000000e+00 0.000000e+00 0.000000e+00 1.800000e+01 0.000000e+00 0.000000e+00 0.000000e+00 1.800000e+01" Properties=species:S:1:pos:R:3:force:R:3 energy=2.368119e-03 dipole="-2.461386e-02 -1.248744e-14 9.217280e-15" pol="2.606488e+01 -2.583302e-10 -6.815216e-12 -2.583302e-10 1.208594e+01 -1.518572e-12 -6.815216e-12 -1.518572e-12 1.208594e+01" pbc="T T T"
O 1.170938e+00 -7.578803e-12 7.193011e-12 -8.283248e-01 -4.197658e-14 -2.246876e-13
C -1.153076e-03 -7.400095e-12 6.606845e-12 9.944666e-01 1.457563e-13 1.647113e-13
O -1.162579e+00 -7.181553e-12 5.978060e-12 -1.661986e-01 -1.174057e-13 7.031642e-14
3
Lattice="1.800000e+01 0.000000e+00 0.000000e+00 0.000000e+00 1.800000e+01 0.000000e+00 0.000000e+00 0.000000e+00 1.800000e+01" Properties=species:S:1:pos:R:3:force:R:3 energy=1.999667e-03 dipole="-7.804185e-03 -2.965615e-16 1.028124e-14" pol="2.569728e+01 -4.656733e-12 -1.105588e-11 -4.656733e-12 1.198588e+01 7.271735e-13 -1.105588e-11 7.271735e-13 1.198588e+01" pbc="T T T"
O 1.161663e+00 -7.645724e-12 7.273212e-12 4.278790e-01 -9.939279e-14 2.955868e-13
C 1.508266e-03 -7.520216e-12 6.711860e-12 3.319123e-01 -3.156705e-15 7.332289e-16
O -1.155298e+00 -7.393017e-12 6.129472e-12 -7.598130e-01 1.041914e-13 -2.446561e-13
3
Lattice="1.800000e+01 0.000000e+00 0.000000e+00 0.000000e+00 1.800000e+01 0.000000e+00 0.000000e+00 0.000000e+00 1.800000e+01" Properties=species:S:1:pos:R:3:force:R:3 energy=6.507220e-03 dipole="2.959019e-02 -5.450264e-15 1.134780e-14" pol="2.567235e+01 -3.764742e-10 -3.333536e-10 -3.764742e-10 1.198041e+01 -1.883566e-12 -3.333536e-10 -1.883566e-12 1.198041e+01" pbc="T T T"
O 1.158857e+00 -8.081799e-12 7.694575e-12 1.311456e+00 7.196993e-14 3.770493e-13
C 7.338395e-03 -8.221808e-12 7.311313e-12 -1.263686e+00 -2.789021e-14 -3.956485e-13
O -1.156866e+00 -8.346795e-12 6.922175e-12 -4.769371e-02 -3.575046e-14 -4.885444e-15
3
Lattice="1.800000e+01 0.000000e+00 0.000000e+00 0.000000e+00 1.800000e+01 0.000000e+00 0.000000e+00 0.000000e+00 1.800000e+01" Properties=species:S:1:pos:R:3:force:R:3 energy=3.365851e-03 dipole="9.528699e-03 -3.531833e-15 2.615267e-14" pol="2.620431e+01 2.469884e-10 -1.427882e-10 2.469884e-10 1.212215e+01 2.605664e-13 -1.427882e-10 2.605664e-13 1.212215e+01" pbc="T T T"
O 1.172087e+00 -8.265715e-12 7.861614e-12 -4.946163e-01 -1.595461e-13 1.012678e-13
C 4.230043e-03 -8.580680e-12 7.656407e-12 -3.773124e-01 8.191016e-14 -3.855464e-13
O -1.167771e+00 -8.879466e-12 7.405632e-12 8.719461e-01 1.030991e-13 3.181494e-13
3
Lattice="1.800000e+01 0.000000e+00 0.000000e+00 0.000000e+00 1.800000e+01 0.000000e+00 0.000000e+00 0.000000e+00 1.800000e+01" Properties=species:S:1:pos:R:3:force:R:3 energy=1.966669e-03 dipole="-2.607547e-02 -1.202527e-14 -1.024608e-14" pol="2.586110e+01 -6.529753e-11 2.542813e-10 -6.529753e-11 1.203123e+01 -2.400340e-12 2.542813e-10 -2.400340e-12 1.203123e+01" pbc="T T T"
O 1.166416e+00 -8.546061e-12 8.158429e-12 -3.593014e-01 -2.498294e-13 -1.100923e-13
C -1.359511e-03 -9.027302e-12 8.103923e-12 1.084252e+00 6.076370e-13 1.248639e-13
O -1.157898e+00 -9.485745e-12 8.062224e-12 -7.250212e-01 -3.920213e-13 -1.244938e-13
3
Lattice="1.800000e+01 0.000000e+00 0.000000e+00 0.000000e+00 1.800000e+01 0.000000e+00 0.000000e+00 0.000000e+00 1.800000e+01" Properties=species:S:1:pos:R:3:force:R:3 energy=2.777452e-03 dipole="-1.579650e-02 -2.646763e-14 8.632813e-15" pol="2.570088e+01 -2.145505e-10 -8.690374e-11 -2.145505e-10 1.198716e+01 -1.372200e-13 -8.690374e-11 -1.372200e-13 1.198716e+01" pbc="T T T"
O 1.162199e+00 -9.321828e-12 8.908314e-12 2.530846e-01 2.535095e-14 -2.795133e-14
C 2.588976e-04 -1.004158e-11 9.315204e-12 6.715925e-01 6.822954e-13 -3.041500e-13
O -1.154903e+00 -1.072545e-11 9.712468e-12 -9.247205e-01 -7.059449e-13 3.846282e-13
3
Lattice="1.800000e+01 0.000000e+00 0.000000e+00 0.000000e+00 1.800000e+01 0.000000e+00 0.000000e+00 0.000000e+00 1.800000e+01" Properties=species:S:1:pos:R:3:force:R:3 energy=1.319985e-03 dipole="6.830196e-03 -1.171387e-14 -5.573654e-15" pol="2.613539e+01 -1.708702e-10 -8.722143e-11 -1.708702e-10 1.210367e+01 -4.565534e-12 -8.722143e-11 -4.565534e-12 1.210367e+01" pbc="T T T"
O 1.170708e+00 -9.645272e-12 9.212344e-12 -3.811136e-01 -4.075727e-13 1.616374e-13
C 3.804249e-03 -1.035214e-11 9.704386e-12 -2.730871e-01 1.875164e-13 1.637917e-13
O -1.166065e+00 -1.101847e-11 1.020370e-11 6.542153e-01 1.437882e-13 -2.871415e-13
3
Lattice="1.800000e+01 0.000000e+00 0.000000e+00 0.000000e+00 1.800000e+01 0.000000e+00 0.000000e+00 0.000000e+00 1.800000e+01" Properties=species:S:1:pos:R:3:force:R:3 energy=5.974235e-03 dipole="3.244198e-02 1.367577e-14 -6.204504e-15" pol="2.572105e+01 1.218834e-10 1.177136e-09 1.218834e-10 1.199393e+01 -4.137846e-12 1.177136e-09 -4.137846e-12 1.199393e+01" pbc="T T T"
O 1.159784e+00 -9.789004e-12 9.319402e-12 1.243434e+00 6.443053e-13 -5.032823e-13
C 7.790305e-03 -1.044104e-11 9.842396e-12 -1.376206e+00 -7.076834e-13 4.553997e-13
O -1.158131e+00 -1.109549e-11 1.035353e-11 1.328566e-01 4.535616e-14 2.280656e-14
3
Lattice="1.800000e+01 0.000000e+00 0.000000e+00 0.000000e+00 1.800000e+01 0.000000e+00 0.000000e+00 0.000000e+00 1.800000e+01" Properties=species:S:1:pos:R:3:force:R:3 energy=2.705551e-03 dipole="1.077966e-02 1.218606e-14 -1.631007e-14" pol="2.568124e+01 3.926034e-10 -1.439256e-11 3.926034e-10 1.198162e+01 1.501830e-12 -1.439256e-11 1.501830e-12 1.198162e+01" pbc="T T T"
O 1.160209e+00 -9.887429e-12 9.394244e-12 8.673908e-01 4.586101e-13 -5.140712e-13
C 4.408260e-03 -1.050674e-11 9.915555e-12 -4.595199e-01 -2.945067e-13 3.765722e-13
O -1.156015e+00 -1.114125e-11 1.046065e-11 -4.078413e-01 -1.105599e-13 8.639732e-14
3
Lattice="1.800000e+01 0.000000e+00 0.000000e+00 0.000000e+00 1.800000e+01 0.000000e+00 0.000000e+00 0.000000e+00 1.800000e+01" Properties=species:S:1:pos:R:3:force:R:3 energy=2.488206e-03 dipole="-1.515571e-02 -8.163514e-15 -4.725245e-16" pol="2.570840e+01 -3.494769e-11 6.110355e-10 -3.494769e-11 1.198916e+01 6.044016e-13 6.110355e-10 6.044016e-13 1.198916e+01" pbc="T T T"
O 1.162336e+00 -1.026949e-11 9.645415e-12 2.467475e-01 1.378679e-13 -1.656393e-13
C 3.606729e-04 -1.078086e-11 1.023434e-11 6.436577e-01 3.010535e-13 -1.847228e-13
O -1.155110e+00 -1.129086e-11 1.084034e-11 -8.904470e-01 -3.396348e-13 4.423964e-13
3
Lattice="1.800000e+01 0.000000e+00 0.000000e+00 0.000000e+00 1.800000e+01 0.000000e+00 0.000000e+00 0.000000e+00 1.800000e+01" Properties=species:S:1:pos:R:3:force:R:3 energy=5.550869e-03 dipole="-1.927445e-02 -3.352677e-14 1.018891e-14" pol="2.623574e+01 7.894232e-11 2.218328e-10 7.894232e-11 1.213114e+01 1.911502e-12 2.218328e-10 1.911502e-12 1.213114e+01" pbc="T T T"
O 1.174479e+00 -1.099881e-11 1.011231e-11 -1.131600e+00 -4.178225e-13 6.455934e-13
C -3.253356e-04 -1.122241e-11 1.076673e-11 7.600469e-01 6.111710e-13 -4.674941e-13
O -1.166739e+00 -1.138208e-11 1.141451e-11 3.715206e-01 -1.646426e-13 -2.209550e-13
3
Lattice="1.800000e+01 0.000000e+00 0.000000e+00 0.000000e+00 1.800000e+01 0.000000e+00 0.000000e+00 0.000000e+00 1.800000e+01" Properties=species:S:1:pos:R:3:force:R:3 energy=3.697267e-03 dipole="-4.129670e-03 3.201530e-14 4.805084e-16" pol="2.622447e+01 7.323118e-10 -1.469449e-10 7.323118e-10 1.212736e+01 -9.999908e-13 -1.469449e-10 -9.999908e-13 1.212736e+01" pbc="T T T"
O 1.173357e+00 -1.111655e-11 1.018465e-11 -8.149767e-01 2.058786e-13 4.545752e-13
C 2.072796e-03 -1.122239e-11 1.082560e-11 1.630373e-01 -5.012322e-13 -8.532859e-14
O -1.167415e+00 -1.139434e-11 1.147002e-11 6.519322e-01 3.342916e-13 -2.602384e-13
3
Lattice="1.800000e+01 0.000000e+00 0.000000e+00 0.000000e+00 1.800000e+01 0.000000e+00 0.000000e+00 0.000000e+00 1.800000e+01" Properties=species:S:1:pos:R:3:force:R:3 energy=3.114575e-03 dipole="2.660622e-03 -4.615133e-15 -9.311546e-15" pol="2.565140e+01 1.541415e-10 -3.164628e-10 1.541415e-10 1.197337e+01 -5.821500e-13 -3.164628e-10 -5.821500e-13 1.197337e+01" pbc="T T T"
O 1.160011e+00 -1.122963e-11 1.028816e-11 7.711682e-01 6.157237e-14 -4.996936e-13
C 3.141498e-03 -1.131008e-11 1.089899e-11 -1.138706e-01 4.302010e-14 1.738707e-13
O -1.154868e+00 -1.138205e-11 1.153020e-11 -6.572903e-01 -7.088466e-14 3.401530e-13
3
Lattice="1.800000e+01 0.000000e+00 0.000000e+00 0.000000e+00 1.800000e+01 0.000000e+00 0.000000e+00 0.000000e+00 1.800000e+01" Properties=species:S:1:pos:R:3:force:R:3 energy=3.615640e-03 dipole="1.543912e-03 2.917719e-14 -1.095413e-14" pol="2.622386e+01 1.871675e-10 6.073292e-11 1.871675e-10 1.212718e+01 -4.472104e-13 6.073292e-11 -4.472104e-13 1.212718e+01" pbc="T T T"
O 1.173005e+00 -1.182729e-11 1.074294e-11 -7.018669e-01 3.610247e-13 2.285281e-13
C 2.967657e-03 -1.159580e-11 1.125372e-11 -6.093309e-02 -4.425977e-13 1.083022e-13
O -1.167742e+00 -1.142392e-11 1.177895e-11 7.628027e-01 1.526532e-13 -3.362969e-13
3
Lattice="1.800000e+01 0.000000e+00 0.000000e+00 0.000000e+00 1.800000e+01 0.000000e+00 0.000000e+00 0.000000e+00 1.800000e+01" Properties=species:S:1:pos:R:3:force:R:3 energy=4.514279e-03 dipole="-2.383794e-02 6.501444e-15 1.849990e-14" pol="2.569149e+01 9.007315e-11 2.444518e-10 9.007315e-11 1.198512e+01 6.233588e-13 2.444518e-10 6.233588e-13 1.198512e+01" pbc="T T T"
O 1.162434e+00 -1.208711e-11 1.090273e-11 1.139000e-01 -1.322786e-16 8.195059e-14
C -9.948990e-04 -1.175520e-11 1.138328e-11 1.015063e+00 -2.885805e-13 -6.141726e-13
O -1.154199e+00 -1.142380e-11 1.183805e-11 -1.129026e+00 2.929801e-13 5.388725e-13
3
Lattice="1.800000e+01 0.000000e+00 0.000000e+00 0.000000e+00 1.800000e+01 0.000000e+00 0.000000e+00 0.000000e+00 1.800000e+01" Properties=species:S:1:pos:R:3:force:R:3 energy=2.425873e-03 dipole="-1.197617e-02 2.774332e-14 -9.102581e-15" pol="2.616347e+01 1.285821e-10 2.058455e-10 1.285821e-10 1.211137e+01 -1.618493e-12 2.058455e-10 -1.618493e-12 1.211137e+01" pbc="T T T"
O 1.172446e+00 -1.280149e-11 1.147411e-11 -8.219485e-01 6.513666e-13 1.076935e-14
C 8.355022e-04 -1.219026e-11 1.165303e-11 4.769948e-01 -5.986649e-13 6.717980e-14
O -1.165572e+00 -1.162635e-11 1.185442e-11 3.449296e-01 -2.498036e-14 -2.171969e-13
3
Lattice="1.800000e+01 0.000000e+00 0.000000e+00 0.000000e+00 1.800000e+01 0.000000e+00 0.000000e+00 0.000000e+00 1.800000e+01" Properties=species:S:1:pos:R:3:force:R:3 energy=4.215601e-03 dipole="-3.152942e-02 4.086152e-14 -8.014093e-15" pol="2.579339e+01 1.555335e-11 -1.382286e-10 1.555335e-11 1.201345e+01 4.693879e-12 -1.382286e-10 4.693879e-12 1.201345e+01" pbc="T T T"
O 1.165177e+00 -1.324832e-11 1.175420e-11 -2.969860e-01 3.323647e-13 7.156896e-15
C -2.206325e-03 -1.251524e-11 1.179288e-11 1.323903e+00 -1.118943e-12 -4.695342e-14
O -1.156028e+00 -1.183049e-11 1.183675e-11 -1.027001e+00 7.430424e-13 4.049741e-14
3
Lattice="1.800000e+01 0.000000e+00 0.000000e+00 0.000000e+00 1.800000e+01 0.000000e+00 0.000000e+00 0.000000e+00 1.800000e+01" Properties=species:S:1:pos:R:3:force:R:3 energy=5.704188e-03 dipole="2.099461e-02 -3.127836e-14 2.634864e-15" pol="2.563485e+01 1.417627e-10 2.632316e-10 1.417627e-10 1.196954e+01 1.303604e-12 2.632316e-10 1.303604e-12 1.196954e+01" pbc="T T T"
O 1.158532e+00 -1.385317e-11 1.218222e-11 1.219457e+00 -9.585529e-13 1.997818e-13
C 5.993902e-03 -1.312985e-11 1.199009e-11 -9.010539e-01 8.044374e-13 -1.422125e-13
O -1.155537e+00 -1.236703e-11 1.179980e-11 -3.183491e-01 5.524437e-14 -6.039696e-15
3
Lattice="1.800000e+01 0.000000e+00 0.000000e+00 0.000000e+00 1.800000e+01 0.000000e+00 0.000000e+00 0.000000e+00 1.800000e+01" Properties=species:S:1:pos:R:3:force:R:3 energy=3.397100e-03 dipole="1.208689e-03 -1.651017e-14 -5.706609e-15" pol="2.564208e+01 -1.614176e-10 -8.295040e-11 -1.614176e-10 1.197084e+01 7.623271e-13 -8.295040e-11 7.623271e-13 1.197084e+01" pbc="T T T"
O 1.159883e+00 -1.397712e-11 1.234002e-11 7.648458e-01 -5.738199e-13 1.448631e-13
C 2.914660e-03 -1.329782e-11 1.205174e-11 -5.176995e-02 2.676428e-13 1.828089e-14
O -1.154571e+00 -1.258325e-11 1.176982e-11 -7.130726e-01 3.702100e-13 -2.279585e-13
3
Lattice="1.800000e+01 0.000000e+00 0.000000e+00 0.000000e+00 1.800000e+01 0.000000e+00 0.000000e+00 0.000000e+00 1.800000e+01" Properties=species:S:1:pos:R:3:force:R:3 energy=-6.044322e-05 dipole="1.695819e-02 -4.097905e-15 -6.160733e-15" pol="2.592784e+01 2.214536e-11 2.602550e-10 2.214536e-11 1.204851e+01 2.071275e-12 2.602550e-10 2.071275e-12 1.204851e+01" pbc="T T T"
O 1.165419e+00 -1.426698e-11 1.268637e-11 3.525482e-01 -9.640986e-14 7.417916e-14
C 5.386182e-03 -1.371501e-11 1.222078e-11 -6.983283e-01 2.591430e-13 -1.123498e-14
O -1.161968e+00 -1.316891e-11 1.178296e-11 3.458257e-01 -8.720283e-14 1.435493e-14
3
Lattice="1.800000e+01 0.000000e+00 0.000000e+00 0.000000e+00 1.800000e+01 0.000000e+00 0.000000e+00 0.000000e+00 1.800000e+01" Properties=species:S:1:pos:R:3:force:R:3 energy=9.237170e-03 dipole="-3.560576e-02 -2.763136e-15 -9.323080e-15" pol="2.564479e+01 -5.269179e-10 6.928129e-10 -5.269179e-10 1.197353e+01 -2.993461e-13 6.928129e-10 -2.993461e-13 1.197353e+01" pbc="T T T"
O 1.162014e+00 -1.462794e-11 1.299521e-11 -1.161507e-03 -4.263267e-14 1.144096e-13
C -2.823286e-03 -1.426123e-11 1.245838e-11 1.526928e+00 -3.419083e-13 6.904109e-13
O -1.152406e+00 -1.387228e-11 1.191652e-11 -1.525853e+00 4.470776e-13 -7.434930e-13
3
Lattice="1.800000e+01 0.000000e+00 0.000000e+00 0.000000e+00 1.800000e+01 0.000000e+00 0.000000e+00 0.000000e+00 1.800000e+01" Properties=species:S:1:pos:R:3:force:R:3 energy=4.749444e-03 dipole="2.346449e-02 1.836868e-14 1.310281e-14" pol="2.568046e+01 5.121309e-10 5.065153e-10 5.121309e-10 1.198210e+01 2.484752e-12 5.065153e-10 2.484752e-12 1.198210e+01" pbc="T T T"
O 1.159419e+00 -1.522933e-11 1.362679e-11 1.150590e+00 5.674919e-14 6.454853e-13
C 6.383258e-03 -1.524490e-11 1.295498e-11 -1.000698e+00 -1.965988e-13 -5.793394e-13
O -1.156715e+00 -1.528857e-11 1.227662e-11 -1.498304e-01 5.800162e-14 -9.720681e-14
3
Lattice="1.800000e+01 0.000000e+00 0.000000e+00 0.000000e+00 1.800000e+01 0.000000e+00 0.000000e+00 0.000000e+00 1.800000e+01" Properties=species:S:1:pos:R:3:force:R:3 energy=5.479539e-03 dipole="3.699421e-02 -1.683686e-14 1.915403e-14" pol="2.582342e+01 -1.987580e-10 5.397968e-10 -1.987580e-10 1.202223e+01 -1.867344e-12 5.397968e-10 -1.867344e-12 1.202223e+01" pbc="T T T"
O 1.161808e+00 -1.530578e-11 1.369663e-11 1.070175e+00 -5.720614e-14 5.484705e-13
C 8.513357e-03 -1.539497e-11 1.301944e-11 -1.547268e+00 1.567092e-13 -8.292191e-13
O -1.160707e+00 -1.544887e-11 1.234148e-11 4.771888e-01 -1.324947e-13 2.619914e-13
3
Lattice="1.800000e+01 0.000000e+00 0.000000e+00 0.000000e+00 1.800000e+01 0.000000e+00 0.000000e+00 0.000000e+00 1.800000e+01" Properties=species:S:1:pos:R:3:force:R:3 energy=2.356589e-03 dipole="1.252811e-02 -2.166630e-14 -3.703873e-15" pol="2.615859e+01 1.087687e-10 6.878587e-11 1.087687e-10 1.211009e+01 -1.404856e-12 6.878587e-11 -1.404856e-12 1.211009e+01" pbc="T T T"
O 1.170877e+00 -1.555803e-11 1.393908e-11 -3.216135e-01 -2.408931e-13 -3.230895e-13
C 4.700150e-03 -1.587077e-11 1.328501e-11 -4.993279e-01 2.571712e-13 -3.238262e-14
O -1.166920e+00 -1.613755e-11 1.265449e-11 8.209667e-01 -5.023478e-14 3.898136e-13
3
Lattice="1.800000e+01 0.000000e+00 0.000000e+00 0.000000e+00 1.800000e+01 0.000000e+00 0.000000e+00 0.000000e+00 1.800000e+01" Properties=species:S:1:pos:R:3:force:R:3 energy=-1.108934e-03 dipole="-4.587660e-03 8.739007e-15 1.204976e-14" pol="2.587771e+01 -1.594051e-10 9.258514e-11 -1.594051e-10 1.203454e+01 -5.108023e-13 9.258514e-11 -5.108023e-13 1.203454e+01" pbc="T T T"
O 1.165573e+00 -1.575872e-11 1.411837e-11 2.914149e-02 6.825957e-14 1.961896e-13
C 2.004986e-03 -1.620404e-11 1.355525e-11 1.902038e-01 -1.548967e-13 -1.185503e-13
O -1.159585e+00 -1.668371e-11 1.295953e-11 -2.193582e-01 -1.674541e-15 -2.032122e-14
3
Lattice="1.800000e+01 0.000000e+00 0.000000e+00 0.000000e+00 1.800000e+01 0.000000e+00 0.000000e+00 0.000000e+00 1.800000e+01" Properties=species:S:1:pos:R:3:force:R:3 energy=2.044182e-03 dipole="-2.360896e-02 -1.984375e-14 -8.753076e-15" pol="2.580515e+01 -8.363897e-10 -5.556512e-11 -8.363897e-10 1.201589e+01 -1.308100e-12 -5.556512e-11 -1.308100e-12 1.201589e+01" pbc="T T T"
O 1.165011e+00 -1.590025e-11 1.427170e-11 -1.708087e-01 -1.877137e-13 -6.505690e-14
C -9.670190e-04 -1.647385e-11 1.373293e-11 9.893561e-01 6.906914e-13 4.787454e-13
O -1.156786e+00 -1.702018e-11 1.320149e-11 -8.186123e-01 -4.505534e-13 -3.815563e-13
3
Lattice="1.800000e+01 0.000000e+00 0.000000e+00 0.000000e+00 1.800000e+01 0.000000e+00 0.000000e+00 0.000000e+00 1.800000e+01" Properties=species:S:1:pos:R:3:force:R:3 energy=3.450037e-03 dipole="2.004703e-02 -1.323396e-14 -9.214657e-15" pol="2.616077e+01 -4.052815e-10 6.622293e-10 -4.052815e-10 1.211120e+01 1.147429e-12 6.622293e-10 1.147429e-12 1.211120e+01" pbc="T T T"
O 1.170465e+00 -1.603348e-11 1.443650e-11 -1.709640e-01 -3.115060e-13 -2.382742e-13
C 5.892202e-03 -1.672259e-11 1.392885e-11 -7.989399e-01 -1.303135e-13 -4.980343e-14
O -1.167390e+00 -1.737003e-11 1.344974e-11 9.699437e-01 3.214187e-13 2.599900e-13
3
Lattice="1.800000e+01 0.000000e+00 0.000000e+00 0.000000e+00 1.800000e+01 0.000000e+00 0.000000e+00 0.000000e+00 1.800000e+01" Properties=species:S:1:pos:R:3:force:R:3 energy=6.483799e-03 dipole="-3.672392e-02 1.820221e-15 -8.773346e-15" pol="2.611711e+01 6.401141e-10 -9.070730e-10 6.401141e-10 1.210148e+01 9.604248e-13 -9.070730e-10 9.604248e-13 1.210148e+01" pbc="T T T"
O 1.172772e+00 -1.621861e-11 1.461529e-11 -1.177741e+00 -6.590158e-13 -3.512861e-13
C -3.069080e-03 -1.696873e-11 1.418738e-11 1.473795e+00 6.537148e-13 4.508686e-13
O -1.162976e+00 -1.775254e-11 1.374669e-11 -2.961297e-01 -1.905420e-15 -1.028344e-13
3
Lattice="1.800000e+01 0.000000e+00 0.000000e+00 0.000000e+00 1.800000e+01 0.000000e+00 0.000000e+00 0.000000e+00 1.800000e+01" Properties=species:S:1:pos:R:3:force:R:3 energy=6.421371e-03 dipole="-2.428562e-02 -3.626056e-14 -1.934454e-14" pol="2.623457e+01 -1.605010e-10 2.343252e-11 -1.605010e-10 1.213132e+01 -1.542890e-12 2.343252e-11 -1.542890e-12 1.213132e+01" pbc="T T T"
O 1.174730e+00 -1.629270e-11 1.470115e-11 -1.222329e+00 -1.116979e-12 -5.079252e-13
C -1.120765e-03 -1.711942e-11 1.428334e-11 9.579979e-01 1.076805e-12 5.413466e-13
O -1.166400e+00 -1.788983e-11 1.389211e-11 2.642913e-01 1.458982e-13 -3.376557e-14
3
Lattice="1.800000e+01 0.000000e+00 0.000000e+00 0.000000e+00 1.800000e+01 0.000000e+00 0.000000e+00 0.000000e+00 1.800000e+01" Properties=species:S:1:pos:R:3:force:R:3 energy=6.125811e-03 dipole="2.449797e-02 1.550644e-15 3.743854e-15" pol="2.622426e+01 1.222757e-10 2.010438e-10 1.222757e-10 1.212859e+01 2.294978e-12 2.010438e-10 2.294978e-12 1.212859e+01" pbc="T T T"
O 1.171602e+00 -1.686028e-11 1.504244e-11 -2.344724e-01 -3.005779e-13 -3.701803e-14
C 6.598930e-03 -1.767882e-11 1.486378e-11 -9.677901e-01 -3.571512e-13 -3.039257e-14
O -1.169065e+00 -1.847053e-11 1.469415e-11 1.202304e+00 6.541573e-13 1.260284e-13
3
Lattice="1.800000e+01 0.000000e+00 0.000000e+00 0.000000e+00 1.800000e+01 0.000000e+00 0.000000e+00 0.000000e+00 1.800000e+01" Properties=species:S:1:pos:R:3:force:R:3 energy=-1.591085e-04 dipole="1.587757e-02 1.123655e-14 -8.421101e-15" pol="2.596032e+01 4.791119e-10 1.942486e-10 4.791119e-10 1.205718e+01 -2.052874e-12 1.942486e-10 -2.052874e-12 1.205718e+01" pbc="T T T"
O 1.166215e+00 -1.818493e-11 1.596304e-11 2.460054e-01 1.013026e-13 -1.353006e-13
C 5.215190e-03 -1.861285e-11 1.599850e-11 -6.508245e-01 -2.864255e-13 1.645423e-13
O -1.162645e+00 -1.905111e-11 1.605600e-11 4.048610e-01 2.012823e-13 -1.062196e-13
3
Lattice="1.800000e+01 0.000000e+00 0.000000e+00 0.000000e+00 1.800000e+01 0.000000e+00 0.000000e+00 0.000000e+00 1.800000e+01" Properties=species:S:1:pos:R:3:force:R:3 energy=1.394151e-03 dipole="1.820909e-02 -3.268424e-15 -9.860107e-15" pol="2.578119e+01 2.022578e-10 1.277316e-10 2.022578e-10 1.200903e+01 -1.030812e-12 1.277316e-10 -1.030812e-12 1.200903e+01" pbc="T T T"
O 1.162023e+00 -1.838449e-11 1.609229e-11 7.633326e-01 1.282689e-13 -1.192065e-13
C 5.567475e-03 -1.875051e-11 1.616271e-11 -7.655124e-01 -9.551670e-14 1.670970e-13
O -1.158718e+00 -1.910037e-11 1.624872e-11 2.230689e-03 -5.439280e-14 9.762077e-15
3
Lattice="1.800000e+01 0.000000e+00 0.000000e+00 0.000000e+00 1.800000e+01 0.000000e+00 0.000000e+00 0.000000e+00 1.800000e+01" Properties=species:S:1:pos:R:3:force:R:3 energy=4.460051e-03 dipole="1.550093e-02 -1.684626e-15 5.051142e-15" pol="2.621924e+01 -5.781105e-10 -1.003082e-09 -5.781105e-10 1.212645e+01 1.613088e-12 -1.003082e-09 1.613088e-12 1.212645e+01" pbc="T T T"
O 1.172052e+00 -1.860246e-11 1.620442e-11 -4.090487e-01 -1.062886e-13 7.565399e-14
C 5.174046e-03 -1.887158e-11 1.633271e-11 -6.125977e-01 -9.218859e-14 -6.497251e-14
O -1.168449e+00 -1.913267e-11 1.644910e-11 1.021673e+00 1.845735e-13 -7.140837e-15
3
Lattice="1.800000e+01 0.000000e+00 0.000000e+00 0.000000e+00 1.800000e+01 0.000000e+00 0.000000e+00 0.000000e+00 1.800000e+01" Properties=species:S:1:pos:R:3:force:R:3 energy=6.357880e-03 dipole="2.326479e-02 4.156966e-16 5.471435e-15" pol="2.623870e+01 3.487713e-10 7.884717e-10 3.487713e-10 1.213231e+01 -1.136282e-12 7.884717e-10 -1.136282e-12 1.213231e+01" pbc="T T T"
O 1.172003e+00 -1.887799e-11 1.632933e-11 -2.957786e-01 -1.263234e-13 7.788843e-14
C 6.405949e-03 -1.901975e-11 1.652959e-11 -9.171552e-01 -1.322309e-14 4.707344e-14
O -1.169319e+00 -1.915511e-11 1.671609e-11 1.212972e+00 8.801337e-14 -8.668379e-14
3
Lattice="1.800000e+01 0.000000e+00 0.000000e+00 0.000000e+00 1.800000e+01 0.000000e+00 0.000000e+00 0.000000e+00 1.800000e+01" Properties=species:S:1:pos:R:3:force:R:3 energy=2.495401e-03 dipole="-1.171724e-02 3.220588e-15 2.507040e-14" pol="2.616708e+01 1.238632e-10 5.704984e-10 1.238632e-10 1.211232e+01 -1.787628e-12 5.704984e-10 -1.787628e-12 1.211232e+01" pbc="T T T"
O 1.172506e+00 -2.018218e-11 1.684535e-11 -8.255718e-01 3.341277e-13 5.339366e-13
C 8.697246e-04 -1.977683e-11 1.740781e-11 4.664410e-01 -1.838365e-13 -5.034395e-13
O -1.165675e+00 -1.937418e-11 1.793313e-11 3.591074e-01 -1.751998e-13 -6.637412e-14
3
Lattice="1.800000e+01 0.000000e+00 0.000000e+00 0.000000e+00 1.800000e+01 0.000000e+00 0.000000e+00 0.000000e+00 1.800000e+01" Properties=species:S:1:pos:R:3:force:R:3 energy=6.742871e-04 dipole="-2.477233e-03 3.752599e-15 2.129871e-14" pol="2.611403e+01 1.624467e-10 -2.301810e-10 1.624467e-10 1.209790e+01 -3.900579e-12 -2.301810e-10 -3.900579e-12 1.209790e+01" pbc="T T T"
O 1.170777e+00 -2.044661e-11 1.694842e-11 -5.162250e-01 2.517891e-13 4.134008e-13
C 2.330117e-03 -1.994231e-11 1.755807e-11 9.932473e-02 -1.022527e-13 -3.157675e-13
O -1.165042e+00 -1.944181e-11 1.813039e-11 4.168948e-01 -2.427489e-13 3.145919e-14
3
Lattice="1.800000e+01 0.000000e+00 0.000000e+00 0.000000e+00 1.800000e+01 0.000000e+00 0.000000e+00 0.000000e+00 1.800000e+01" Properties=species:S:1:pos:R:3:force:R:3 energy=3.973230e-05 dipole="1.517711e-02 -1.456833e-14 -3.035290e-14" pol="2.600699e+01 -4.535332e-10 -2.289377e-10 -4.535332e-10 1.206967e+01 -1.723935e-12 -2.289377e-10 -1.723935e-12 1.206967e+01" pbc="T T T"
O 1.167311e+00 -2.083072e-11 1.711396e-11 1.122155e-01 -4.652927e-15 -2.298585e-13
C 5.110297e-03 -2.020542e-11 1.773712e-11 -6.180227e-01 4.040680e-13 6.420718e-13
O -1.163657e+00 -1.956652e-11 1.840942e-11 5.058457e-01 -2.766710e-13 -4.051553e-13
3
Lattice="1.800000e+01 0.000000e+00 0.000000e+00 0.000000e+00 1.800000e+01 0.000000e+00 0.000000e+00 0.000000e+00 1.800000e+01" Properties=species:S:1:pos:R:3:force:R:3 energy=-7.739749e-05 dipole="1.367845e-02 -1.021308e-14 9.297650e-15" pol="2.601464e+01 9.852777e-11 -5.151469e-11 9.852777e-11 1.207164e+01 1.605668e-12 -5.151469e-11 1.605668e-12 1.207164e+01" pbc="T T T"
O 1.167572e+00 -2.213493e-11 1.778556e-11 6.125228e-02 1.711411e-14 4.808381e-14
C 4.872015e-03 -2.136779e-11 1.847740e-11 -5.563742e-01 3.535425e-13 4.092763e-14
O -1.163747e+00 -2.059346e-11 1.914360e-11 4.951564e-01 -3.513388e-13 -1.507749e-13
3
Lattice="1.800000e+01 0.000000e+00 0.000000e+00 0.000000e+00 1.800000e+01 0.000000e+00 0.000000e+00 0.000000e+00 1.800000e+01" Properties=species:S:1:pos:R:3:force:R:3 energy=2.951201e-04 dipole="-1.582890e-03 1.109901e-15 3.537873e-15" pol="2.575898e+01 -3.923679e-10 -2.061156e-11 -3.923679e-10 1.200249e+01 7.534517e-13 -2.061156e-11 7.534517e-13 1.200249e+01" pbc="T T T"
O 1.162704e+00 -2.241524e-11 1.812119e-11 3.970286e-01 -2.842766e-13 -1.559387e-13
C 2.476253e-03 -2.179266e-11 1.869979e-11 6.670890e-02 -5.039163e-14 -1.473099e-13
O -1.157072e+00 -2.116874e-11 1.927024e-11 -4.637420e-01 2.000749e-13 2.836606e-13
3
Lattice="1.800000e+01 0.000000e+00 0.000000e+00 0.000000e+00 1.800000e+01 0.000000e+00 0.000000e+00 0.000000e+00 1.800000e+01" Properties=species:S:1:pos:R:3:force:R:3 energy=4.314431e-03 dipole="-2.841218e-02 1.398488e-14 3.509104e-14" pol="2.612420e+01 3.640751e-11 -3.597436e-11 3.640751e-11 1.210227e+01 -9.689998e-13 -3.597436e-11 -9.689998e-13 1.210227e+01" pbc="T T T"
O 1.172483e+00 -2.253802e-11 1.825475e-11 -1.040830e+00 5.360625e-13 6.679087e-13
C -1.757946e-03 -2.198308e-11 1.881096e-11 1.138570e+00 -6.103747e-13 -9.429751e-13
O -1.163668e+00 -2.144043e-11 1.931023e-11 -9.779910e-02 8.293427e-14 2.332202e-13
3
Lattice="1.800000e+01 0.000000e+00 0.000000e+00 0.000000e+00 1.800000e+01 0.000000e+00 0.000000e+00 0.000000e+00 1.800000e+01" Properties=species:S:1:pos:R:3:force:R:3 energy=1.704193e-03 dipole="6.000276e-03 1.481490e-15 2.077379e-14" pol="2.570405e+01 1.758833e-10 -2.723059e-10 1.758833e-10 1.198768e+01 7.744575e-14 -2.723059e-10 7.744575e-14 1.198768e+01" pbc="T T T"
O 1.161010e+00 -2.264040e-11 1.837645e-11 7.028399e-01 -2.656891e-13 -1.560880e-13
C 3.660872e-03 -2.215189e-11 1.888053e-11 -2.549404e-01 1.030805e-14 -2.050547e-13
O -1.156263e+00 -2.166984e-11 1.934047e-11 -4.478828e-01 2.514146e-13 4.027678e-13
3
Lattice="1.800000e+01 0.000000e+00 0.000000e+00 0.000000e+00 1.800000e+01 0.000000e+00 0.000000e+00 0.000000e+00 1.800000e+01" Properties=species:S:1:pos:R:3:force:R:3 energy=5.130752e-03 dipole="-3.776991e-02 5.285095e-15 -2.253154e-14" pol="2.598492e+01 -8.904799e-10 -3.878233e-10 -8.904799e-10 1.206602e+01 -1.533492e-12 -3.878233e-10 -1.533492e-12 1.206602e+01" pbc="T T T"
O 1.169851e+00 -2.273028e-11 1.848100e-11 -8.844405e-01 2.720801e-13 8.000878e-14
C -3.212048e-03 -2.229321e-11 1.889468e-11 1.544324e+00 -5.212687e-13 -7.371993e-14
O -1.159945e+00 -2.184682e-11 1.937797e-11 -6.599741e-01 1.826750e-13 1.256126e-14
3
Lattice="1.800000e+01 0.000000e+00 0.000000e+00 0.000000e+00 1.800000e+01 0.000000e+00 0.000000e+00 0.000000e+00 1.800000e+01" Properties=species:S:1:pos:R:3:force:R:3 energy=3.544897e-03 dipole="1.583994e-02 -8.019739e-15 -2.015611e-14" pol="2.567404e+01 4.790201e-10 1.204951e-10 4.790201e-10 1.197988e+01 2.765305e-12 1.204951e-10 2.765305e-12 1.197988e+01" pbc="T T T"
O 1.159734e+00 -2.300063e-11 1.882169e-11 9.979880e-01 -2.710751e-13 -4.110740e-13
C 5.189844e-03 -2.276129e-11 1.908318e-11 -6.759895e-01 1.823878e-13 4.525790e-13
O -1.156146e+00 -2.250947e-11 1.938063e-11 -3.219557e-01 6.318095e-14 -1.230301e-13
3
Lattice="1.800000e+01 0.000000e+00 0.000000e+00 0.000000e+00 1.800000e+01 0.000000e+00 0.000000e+00 0.000000e+00 1.800000e+01" Properties=species:S:1:pos:R:3:force:R:3 energy=2.781829e-03 dipole="-2.654340e-03 -6.782627e-15 -4.324212e-14" pol="2.619665e+01 3.082524e-10 -2.106460e-11 3.082524e-10 1.211994e+01 -9.195676e-13 -2.106460e-11 -9.195676e-13 1.211994e+01" pbc="T T T"
O 1.172641e+00 -2.319119e-11 1.906582e-11 -7.195042e-01 2.037679e-14 -2.281409e-13
C 2.300282e-03 -2.307958e-11 1.917663e-11 1.051938e-01 8.022564e-14 5.981901e-13
O -1.166886e+00 -2.295503e-11 1.937068e-11 6.143054e-01 -9.826103e-14 -3.393981e-13
3
Lattice="1.800000e+01 0.000000e+00 0.000000e+00 0.000000e+00 1.800000e+01 0.000000e+00 0.000000e+00 0.000000e+00 1.800000e+01" Properties=species:S:1:pos:R:3:force:R:3 energy=-5.997309e-04 dipole="-1.127843e-02 -4.292569e-15 -2.670697e-14" pol="2.587222e+01 2.503937e-10 3.410673e-10 2.503937e-10 1.203325e+01 -1.461040e-12 3.410673e-10 -1.461040e-12 1.203325e+01" pbc="T T T"
O 1.165832e+00 -2.332919e-11 1.920991e-11 -9.317617e-02 -6.157220e-14 -2.148070e-13
C 9.532697e-04 -2.328891e-11 1.925331e-11 4.680280e-01 3.104785e-14 3.762832e-13
O -1.159063e+00 -2.323826e-11 1.935561e-11 -3.748834e-01 -4.390995e-14 -2.060206e-13
3
Lattice="1.800000e+01 0.000000e+00 0.000000e+00 0.000000e+00 1.800000e+01 0.000000e+00 0.000000e+00 0.000000e+00 1.800000e+01" Properties=species:S:1:pos:R:3:force:R:3 energy=5.654036e-03 dipole="3.610477e-02 1.460900e-15 2.097228e-14" pol="2.579183e+01 8.871681e-10 -7.756468e-10 8.871681e-10 1.201355e+01 -4.048638e-12 -7.756468e-10 -4.048638e-12 1.201355e+01" pbc="T T T"
O 1.161149e+00 -2.347110e-11 1.933572e-11 1.135001e+00 5.740147e-15 9.527920e-14
C 8.367325e-03 -2.348993e-11 1.935767e-11 -1.516711e+00 -5.794726e-14 -3.027119e-13
O -1.159944e+00 -2.351211e-11 1.933531e-11 3.818043e-01 -1.061129e-14 1.293591e-13
3
Lattice="1.800000e+01 0.000000e+00 0.000000e+00 0.000000e+00 1.800000e+01 0.000000e+00 0.000000e+00 0.000000e+00 1.800000e+01" Properties=species:S:1:pos:R:3:force:R:3 energy=8.860615e-03 dipole="3.571721e-02 -1.651597e-15 5.391273e-16" pol="2.622140e+01 -3.692904e-10 5.407767e-10 -3.692904e-10 1.212932e+01 2.164415e-12 5.407767e-10 2.164415e-12 1.212932e+01" pbc="T T T"
O 1.170822e+00 -1.569623e-18 -1.210796e-17 1.155187e-02 -1.151373e-14 3.276577e-14
C 8.379223e-03 -1.029683e-17 -1.209061e-17 -1.412414e+00 2.220585e-15 3.713217e-15
O -1.169606e+00 5.360969e-18 -6.044109e-18 1.400921e+00 3.885076e-14 1.600608e-14
3
Lattice="1.800000e+01 0.000000e+00 0.000000e+00 0.000000e+00 1.800000e+01 0.000000e+00 0.000000e+00 0.000000e+00 1.800000e+01" Properties=species:S:1:pos:R:3:force:R:3 energy=4.672532e-03 dipole="-2.910719e-02 3.511236e-15 5.984802e-15" pol="2.573581e+01 -1.058229e-09 -2.105118e-10 -1.058229e-09 1.199760e+01 1.037739e-12 -2.105118e-10 1.037739e-12 1.199760e+01" pbc="T T T"
O 1.163741e+00 -1.364297e-15 1.234554e-15 -1.044845e-01 1.502035e-14 -1.253297e-14
C -1.815723e-03 -1.388047e-15 -1.666500e-15 1.231992e+00 3.030931e-14 2.863689e-14
O -1.154871e+00 -2.457777e-15 -3.263020e-15 -1.127585e+00 -9.555666e-15 -3.716986e-14
3
Lattice="1.800000e+01 0.000000e+00 0.000000e+00 0.000000e+00 1.800000e+01 0.000000e+00 0.000000e+00 0.000000e+00 1.800000e+01" Properties=species:S:1:pos:R:3:force:R:3 energy=4.226157e-03 dipole="-1.769335e-02 2.500446e-15 -2.677477e-15" pol="2.620194e+01 1.323667e-10 -5.067104e-10 1.323667e-10 1.212200e+01 -1.036021e-12 -5.067104e-10 -1.036021e-12 1.212200e+01" pbc="T T T"
O 1.173635e+00 -6.889197e-15 4.382007e-15 -1.022545e+00 4.742472e-14 -1.976499e-14
C -6.984897e-05 -6.236200e-15 -5.838746e-15 7.009982e-01 -5.626043e-15 -7.677676e-15
O -1.166080e+00 -6.135705e-15 -1.463395e-14 3.215142e-01 -3.519292e-14 -5.831052e-14
3
Lattice="1.800000e+01 0.000000e+00 0.000000e+00 0.000000e+00 1.800000e+01 0.000000e+00 0.000000e+00 0.000000e+00 1.800000e+01" Properties=species:S:1:pos:R:3:force:R:3 energy=2.869863e-03 dipole="2.714060e-02 2.155587e-15 3.442336e-16" pol="2.580448e+01 1.770261e-10 -5.311842e-10 1.770261e-10 1.201602e+01 -1.298046e-12 -5.311842e-10 -1.298046e-12 1.201602e+01" pbc="T T T"
O 1.162004e+00 -1.427472e-13 8.740096e-14 8.988594e-01 -6.145781e-14 1.135245e-13
C 6.971392e-03 -4.980366e-14 -1.401674e-14 -1.137618e+00 6.388921e-14 -1.308004e-13
O -1.159739e+00 4.131635e-14 -1.168391e-13 2.388324e-01 5.432148e-14 1.926053e-14
3
Lattice="1.800000e+01 0.000000e+00 0.000000e+00 0.000000e+00 1.800000e+01 0.000000e+00 0.000000e+00 0.000000e+00 1.800000e+01" Properties=species:S:1:pos:R:3:force:R:3 energy=1.469303e-03 dipole="-4.080971e-03 -2.948981e-15 -3.424430e-15" pol="2.570968e+01 -2.298946e-10 3.309190e-10 -2.298946e-10 1.198917e+01 4.416261e-12 3.309190e-10 4.416261e-12 1.198917e+01" pbc="T T T"
O 1.161731e+00 -2.732106e-13 1.884739e-13 4.734201e-01 -1.889603e-13 1.741085e-13
C 2.089480e-03 -8.173100e-14 -3.215810e-15 1.732468e-01 2.524594e-14 6.163266e-14
O -1.155801e+00 1.194303e-13 -1.926571e-13 -6.466784e-01 1.090491e-13 -1.289968e-13
3
Lattice="1.800000e+01 0.000000e+00 0.000000e+00 0.000000e+00 1.800000e+01 0.000000e+00 0.000000e+00 0.000000e+00 1.800000e+01" Properties=species:S:1:pos:R:3:force:R:3 energy=6.263136e-03 dipole="-3.866793e-02 1.378505e-14 -6.059811e-15" pol="2.606803e+01 5.834838e-10 6.201968e-10 5.834838e-10 1.208857e+01 5.159522e-12 6.201968e-10 5.159522e-12 1.208857e+01" pbc="T T T"
O 1.171771e+00 -5.436756e-13 4.083149e-13 -1.098249e+00 3.743372e-13 -3.670232e-13
C -3.368421e-03 -1.536244e-13 6.073567e-14 1.562759e+00 -5.180259e-13 4.152501e-13
O -1.161752e+00 2.340072e-13 -2.885177e-13 -4.645941e-01 1.713019e-14 -9.345618e-14
3
Lattice="1.800000e+01 0.000000e+00 0.000000e+00 0.000000e+00 1.800000e+01 0.000000e+00 0.000000e+00 0.000000e+00 1.800000e+01" Properties=species:S:1:pos:R:3:force:R:3 energy=-1.214651e-05 dipole="-1.612874e-02 1.709962e-15 -8.749985e-15" pol="2.587373e+01 1.609025e-10 -7.249153e-10 1.609025e-10 1.203389e+01 -6.713685e-13 -7.249153e-10 -6.713685e-13 1.203389e+01" pbc="T T T"
O 1.166142e+00 -6.706748e-13 5.099300e-13 -1.943716e-01 5.734024e-14 -1.722886e-13
C 1.932756e-04 -2.132598e-13 1.131496e-13 6.692381e-01 -2.275920e-13 3.333995e-13
O -1.158803e+00 2.472186e-13 -2.771748e-13 -4.749113e-01 1.722534e-13 -1.315684e-13
3
Lattice="1.800000e+01 0.000000e+00 0.000000e+00 0.000000e+00 1.800000e+01 0.000000e+00 0.000000e+00 0.000000e+00 1.800000e+01" Properties=species:S:1:pos:R:3:force:R:3 energy=7.894553e-03 dipole="-3.460382e-02 3.716004e-16 -1.288938e-14" pol="2.567605e+01 -4.779219e-10 -9.691096e-10 -4.779219e-10 1.198193e+01 1.276559e-13 -9.691096e-10 1.276559e-13 1.198193e+01" pbc="T T T"
O 1.162669e+00 -7.674456e-13 5.539921e-13 -6.116885e-02 -3.682366e-14 -1.895812e-14
C -2.675443e-03 -2.766857e-13 1.571899e-13 1.477383e+00 -4.569723e-13 5.271720e-13
O -1.153182e+00 2.361308e-13 -2.331633e-13 -1.416301e+00 5.497092e-13 -4.732906e-13
3
Lattice="1.800000e+01 0.000000e+00 0.000000e+00 0.000000e+00 1.800000e+01 0.000000e+00 0.000000e+00 0.000000e+00 1.800000e+01" Properties=species:S:1:pos:R:3:force:R:3 energy=6.423334e-04 dipole="1.837451e-02 -3.122912e-14 5.165735e-15" pol="2.583743e+01 -2.521436e-10 -2.948762e-10 -2.521436e-10 1.202423e+01 7.259512e-13 -2.948762e-10 7.259512e-13 1.202423e+01" pbc="T T T"
O 1.163281e+00 -9.660855e-13 5.799344e-13 6.184602e-01 -4.122528e-13 2.177962e-13
C 5.592257e-03 -3.921881e-13 2.346997e-13 -7.663786e-01 6.148146e-13 -2.181995e-13
O -1.160009e+00 2.226195e-13 -1.130289e-13 1.479697e-01 -1.509680e-13 9.528860e-14
3
Lattice="1.800000e+01 0.000000e+00 0.000000e+00 0.000000e+00 1.800000e+01 0.000000e+00 0.000000e+00 0.000000e+00 1.800000e+01" Properties=species:S:1:pos:R:3:force:R:3 energy=3.719903e-03 dipole="2.925382e-02 -3.596929e-14 1.049076e-14" pol="2.608204e+01 9.989158e-11 9.644819e-11 9.989158e-11 1.209105e+01 -1.236630e-12 9.644819e-11 -1.236630e-12 1.209105e+01" pbc="T T T"
O 1.168107e+00 -1.089904e-12 5.787529e-13 2.225987e-01 -2.477562e-13 5.788993e-14
C 7.322775e-03 -4.635073e-13 2.801957e-13 -1.179329e+00 9.541321e-13 -2.620215e-13
O -1.166143e+00 2.121580e-13 -2.201812e-14 9.567957e-01 -6.863293e-13 2.343276e-13
3
Lattice="1.800000e+01 0.000000e+00 0.000000e+00 0.000000e+00 1.800000e+01 0.000000e+00 0.000000e+00 0.000000e+00 1.800000e+01" Properties=species:S:1:pos:R:3:force:R:3 energy=2.528885e-03 dipole="4.074934e-03 7.695216e-15 4.436795e-15" pol="2.567152e+01 -3.178386e-13 1.407897e-10 -3.178386e-13 1.197883e+01 8.658363e-13 1.407897e-10 8.658363e-13 1.197883e+01" pbc="T T T"
O 1.160370e+00 -1.230124e-12 5.739759e-13 7.479241e-01 -3.613080e-13 1.816192e-13
C 3.346030e-03 -5.261623e-13 3.465559e-13 -1.739226e-01 -1.075158e-13 -8.626931e-14
O -1.155425e+00 1.520015e-13 1.127733e-13 -5.739903e-01 4.203691e-13 -7.144732e-14
3
Lattice="1.800000e+01 0.000000e+00 0.000000e+00 0.000000e+00 1.800000e+01 0.000000e+00 0.000000e+00 0.000000e+00 1.800000e+01" Properties=species:S:1:pos:R:3:force:R:3 energy=3.587457e-03 dipole="3.116627e-02 -3.234355e-14 5.852380e-15" pol="2.603746e+01 1.040874e-09 1.991509e-10 1.040874e-09 1.207931e+01 -6.883513e-13 1.991509e-10 -6.883513e-13 1.207931e+01" pbc="T T T"
O 1.166978e+00 -1.374077e-12 6.366902e-13 3.780115e-01 -3.099457e-13 1.032519e-13
C 7.610981e-03 -6.821634e-13 4.653534e-13 -1.264460e+00 9.826562e-13 -2.308423e-13
O -1.165251e+00 4.877345e-14 2.887942e-13 8.865209e-01 -6.701517e-13 1.234845e-13
3
Lattice="1.800000e+01 0.000000e+00 0.000000e+00 0.000000e+00 1.800000e+01 0.000000e+00 0.000000e+00 0.000000e+00 1.800000e+01" Properties=species:S:1:pos:R:3:force:R:3 energy=5.627422e-03 dipole="-2.631637e-02 -5.897759e-15 -4.456461e-15" pol="2.567322e+01 7.602857e-10 4.305437e-10 7.602857e-10 1.198036e+01 -3.081202e-12 4.305437e-10 -3.081202e-12 1.198036e+01" pbc="T T T"
O 1.162128e+00 -1.551004e-12 1.005532e-12 1.110116e-01 -1.922660e-13 2.879718e-14
C -1.406471e-03 -9.894457e-13 7.777434e-13 1.123584e+00 -3.266176e-13 2.247132e-13
O -1.153658e+00 -3.952226e-13 5.498084e-13 -1.234665e+00 4.516832e-13 -2.717988e-13
3
Lattice="1.800000e+01 0.000000e+00 0.000000e+00 0.000000e+00 1.800000e+01 0.000000e+00 0.000000e+00 0.000000e+00 1.800000e+01" Properties=species:S:1:pos:R:3:force:R:3 energy=2.923955e-03 dipole="-2.786128e-02 -2.432461e-14 -1.765074e-14" pol="2.605210e+01 1.487259e-10 8.653822e-12 1.487259e-10 1.208285e+01 -1.354574e-14 8.653822e-12 -1.354574e-14 1.208285e+01" pbc="T T T"
O 1.170788e+00 -1.708114e-12 1.580257e-12 -8.592599e-01 -2.882869e-15 -3.687808e-13
C -1.704959e-03 -1.425579e-12 1.220419e-12 1.127861e+00 1.116475e-13 3.570049e-13
O -1.162129e+00 -1.089318e-12 8.631667e-13 -2.686657e-01 -1.661919e-13 -1.505920e-14
3
Lattice="1.800000e+01 0.000000e+00 0.000000e+00 0.000000e+00 1.800000e+01 0.000000e+00 0.000000e+00 0.000000e+00 1.800000e+01" Properties=species:S:1:pos:R:3:force:R:3 energy=7.804218e-04 dipole="-2.041828e-02 -1.767388e-14 -4.124155e-15" pol="2.586131e+01 8.057164e-11 -1.627950e-10 8.057164e-11 1.203082e+01 1.303692e-12 -1.627950e-10 1.303692e-12 1.203082e+01" pbc="T T T"
O 1.166052e+00 -1.818749e-12 1.810476e-12 -2.485612e-01 -1.412535e-13 1.470817e-15
C -5.274492e-04 -1.751895e-12 1.539385e-12 8.488167e-01 2.173925e-13 2.269752e-13
O -1.158308e+00 -1.646742e-12 1.267190e-12 -6.003117e-01 -9.638208e-14 -1.205251e-13
3
Lattice="1.800000e+01 0.000000e+00 0.000000e+00 0.000000e+00 1.800000e+01 0.000000e+00 0.000000e+00 0.000000e+00 1.800000e+01" Properties=species:S:1:pos:R:3:force:R:3 energy=6.277143e-03 dipole="-2.280567e-02 -2.758664e-14 2.027063e-15" pol="2.623891e+01 -5.467367e-10 7.119503e-10 -5.467367e-10 1.213232e+01 -1.019397e-12 7.119503e-10 -1.019397e-12 1.213232e+01" pbc="T T T"
O 1.174685e+00 -2.015916e-12 2.003591e-12 -1.204946e+00 -2.487888e-13 -1.520044e-13
C -9.475844e-04 -2.039790e-12 1.817596e-12 8.990109e-01 5.059255e-13 1.462079e-13
O -1.166651e+00 -1.998999e-12 1.630554e-12 3.058976e-01 -2.766695e-13 5.383395e-14
3
Lattice="1.800000e+01 0.000000e+00 0.000000e+00 0.000000e+00 1.800000e+01 0.000000e+00 0.000000e+00 0.000000e+00 1.800000e+01" Properties=species:S:1:pos:R:3:force:R:3 energy=6.627663e-03 dipole="3.542211e-02 2.337650e-14 9.957218e-15" pol="2.614245e+01 -2.279403e-10 2.042438e-10 -2.279403e-10 1.210810e+01 -1.387551e-12 2.042438e-10 -1.387551e-12 1.210810e+01" pbc="T T T"
O 1.169007e+00 -2.178686e-12 2.188445e-12 2.034060e-01 1.687410e-13 9.103325e-14
C 8.247848e-03 -2.172447e-12 2.020935e-12 -1.416379e+00 -2.990785e-13 -1.789234e-13
O -1.167892e+00 -2.206396e-12 1.847608e-12 1.213042e+00 1.513110e-13 1.986197e-13
3
Lattice="1.800000e+01 0.000000e+00 0.000000e+00 0.000000e+00 1.800000e+01 0.000000e+00 0.000000e+00 0.000000e+00 1.800000e+01" Properties=species:S:1:pos:R:3:force:R:3 energy=3.010992e-04 dipole="1.250394e-02 2.524752e-14 1.123246e-15" pol="2.605665e+01 -2.009966e-10 -2.677908e-12 -2.009966e-10 1.208284e+01 8.393738e-13 -2.677908e-12 8.393738e-13 1.208284e+01" pbc="T T T"
O 1.168520e+00 -2.303810e-12 2.373340e-12 -6.906213e-02 2.164316e-13 -3.800493e-14
C 4.620477e-03 -2.306502e-12 2.188546e-12 -5.055831e-01 -4.273816e-13 -5.691413e-14
O -1.164696e+00 -2.362897e-12 2.003416e-12 5.746753e-01 2.304648e-13 1.106464e-13
3
Lattice="1.800000e+01 0.000000e+00 0.000000e+00 0.000000e+00 1.800000e+01 0.000000e+00 0.000000e+00 0.000000e+00 1.800000e+01" Properties=species:S:1:pos:R:3:force:R:3 energy=-1.306558e-04 dipole="1.356772e-02 1.974114e-14 -1.922245e-15" pol="2.584532e+01 1.894413e-10 -7.565971e-10 1.894413e-10 1.202610e+01 -2.062871e-13 -7.565971e-10 -2.062871e-13 1.202610e+01" pbc="T T T"
O 1.163678e+00 -2.470798e-12 2.786755e-12 4.938116e-01 1.980092e-13 9.913458e-14
C 4.765947e-03 -2.545392e-12 2.517534e-12 -5.651938e-01 -3.455210e-13 -8.926706e-14
O -1.159991e+00 -2.665306e-12 2.250535e-12 7.142039e-02 2.129987e-13 2.524625e-14
3
Lattice="1.800000e+01 0.000000e+00 0.000000e+00 0.000000e+00 1.800000e+01 0.000000e+00 0.000000e+00 0.000000e+00 1.800000e+01" Properties=species:S:1:pos:R:3:force:R:3 energy=3.513825e-03 dipole="9.044047e-03 1.056046e-14 5.273486e-15" pol="2.621031e+01 -3.485461e-10 5.096834e-10 -3.485461e-10 1.212372e+01 1.853432e-12 5.096834e-10 1.853432e-12 1.212372e+01" pbc="T T T"
O 1.172165e+00 -2.505883e-12 2.963319e-12 -5.189886e-01 -5.978658e-15 -1.200373e-13
C 4.068012e-03 -2.644374e-12 2.659673e-12 -3.578146e-01 -1.456795e-13 -1.617212e-13
O -1.167963e+00 -2.800493e-12 2.347697e-12 8.768196e-01 1.576090e-13 2.806789e-13
3
Lattice="1.800000e+01 0.000000e+00 0.000000e+00 0.000000e+00 1.800000e+01 0.000000e+00 0.000000e+00 0.000000e+00 1.800000e+01" Properties=species:S:1:pos:R:3:force:R:3 energy=1.395599e-04 dipole="-3.377538e-03 -5.065694e-15 1.152177e-14" pol="2.576936e+01 3.616716e-10 -3.175853e-10 3.616716e-10 1.200531e+01 -4.316104e-13 -3.175853e-10 -4.316104e-13 1.200531e+01" pbc="T T T"
O 1.162948e+00 -2.554309e-12 3.312863e-12 3.324401e-01 -3.119965e-15 1.533552e-13
C 2.099194e-03 -2.852564e-12 2.985358e-12 1.421796e-01 1.948607e-13 -3.041852e-14
O -1.157298e+00 -3.133702e-12 2.641248e-12 -4.746293e-01 -1.560639e-13 -1.011228e-13
3
Lattice="1.800000e+01 0.000000e+00 0.000000e+00 0.000000e+00 1.800000e+01 0.000000e+00 0.000000e+00 0.000000e+00 1.800000e+01" Properties=species:S:1:pos:R:3:force:R:3 energy=4.287767e-03 dipole="2.367045e-02 -5.064950e-15 1.556267e-14" pol="2.569833e+01 1.640829e-10 3.556984e-10 1.640829e-10 1.198697e+01 1.317667e-12 3.556984e-10 1.317667e-12 1.198697e+01" pbc="T T T"
O 1.159710e+00 -2.573036e-12 3.459153e-12 1.106700e+00 1.923192e-13 3.390669e-13
C 6.315304e-03 -2.933418e-12 3.138598e-12 -1.006955e+00 -1.762820e-13 -4.237697e-13
O -1.157235e+00 -3.272920e-12 2.799493e-12 -9.968205e-02 -1.131698e-13 -5.926551e-15
3
Lattice="1.800000e+01 0.000000e+00 0.000000e+00 0.000000e+00 1.800000e+01 0.000000e+00 0.000000e+00 0.000000e+00 1.800000e+01" Properties=species:S:1:pos:R:3:force:R:3 energy=3.109053e-03 dipole="-2.160247e-02 -2.238917e-15 -1.080729e-14" pol="2.613540e+01 2.954371e-10 -2.702300e-10 2.954371e-10 1.210455e+01 6.865481e-13 -2.702300e-10 6.865481e-13 1.210455e+01" pbc="T T T"
O 1.172253e+00 -2.601804e-12 3.582217e-12 -9.393095e-01 -2.908046e-13 -3.647945e-13
C -7.900080e-04 -2.990804e-12 3.260351e-12 8.640632e-01 2.538460e-13 3.112589e-13
O -1.164454e+00 -3.385935e-12 2.948678e-12 7.520128e-02 2.713940e-14 -2.437012e-14
3
Lattice="1.800000e+01 0.000000e+00 0.000000e+00 0.000000e+00 1.800000e+01 0.000000e+00 0.000000e+00 0.000000e+00 1.800000e+01" Properties=species:S:1:pos:R:3:force:R:3 energy=3.039676e-03 dipole="2.955271e-02 1.568269e-15 1.974629e-14" pol="2.583986e+01 5.903246e-10 -2.967195e-10 5.903246e-10 1.202583e+01 -1.584856e-12 -2.967195e-10 -1.584856e-12 1.202583e+01" pbc="T T T"
O 1.162537e+00 -2.685511e-12 3.780174e-12 8.584809e-01 2.393356e-13 3.179121e-13
C 7.237211e-03 -3.125338e-12 3.532733e-12 -1.232705e+00 -3.116767e-13 -4.080334e-13
O -1.160790e+00 -3.552801e-12 3.262005e-12 3.743029e-01 1.211468e-13 1.803448e-13
3
Lattice="1.800000e+01 0.000000e+00 0.000000e+00 0.000000e+00 1.800000e+01 0.000000e+00 0.000000e+00 0.000000e+00 1.800000e+01" Properties=species:S:1:pos:R:3:force:R:3 energy=3.135987e-03 dipole="2.494869e-02 -3.946282e-15 1.792733e-14" pol="2.575916e+01 -4.460478e-10 -2.405612e-10 -4.460478e-10 1.200356e+01 5.826511e-13 -2.405612e-10 5.826511e-13 1.200356e+01" pbc="T T T"
O 1.160988e+00 -2.848038e-12 4.075591e-12 9.712115e-01 2.365442e-13 2.862834e-13
C 6.497514e-03 -3.291235e-12 3.904839e-12 -1.052338e+00 -2.350380e-13 -3.770960e-13
O -1.158714e+00 -3.712843e-12 3.708488e-12 8.119449e-02 5.114225e-15 8.399764e-14
3
Lattice="1.800000e+01 0.000000e+00 0.000000e+00 0.000000e+00 1.800000e+01 0.000000e+00 0.000000e+00 0.000000e+00 1.800000e+01" Properties=species:S:1:pos:R:3:force:R:3 energy=7.274398e-04 dipole="2.097976e-02 2.365578e-14 -8.842663e-15" pol="2.588578e+01 4.125922e-10 -4.277076e-11 4.125922e-10 1.203746e+01 -2.678564e-12 -4.277076e-11 -2.678564e-12 1.203746e+01" pbc="T T T"
O 1.164094e+00 -2.909739e-12 4.177378e-12 5.485413e-01 2.829187e-13 3.293569e-14
C 5.884853e-03 -3.316346e-12 3.992567e-12 -8.691752e-01 -4.736601e-13 5.074722e-14
O -1.161371e+00 -3.756420e-12 3.828196e-12 3.206911e-01 2.391979e-13 -6.034900e-14
3
Lattice="1.800000e+01 0.000000e+00 0.000000e+00 0.000000e+00 1.800000e+01 0.000000e+00 0.000000e+00 0.000000e+00 1.800000e+01" Properties=species:S:1:pos:R:3:force:R:3 energy=5.858664e-03 dipole="-2.479708e-02 -1.281769e-14 1.548423e-15" pol="2.621390e+01 3.567818e-10 -7.307081e-10 3.567818e-10 1.212586e+01 8.732587e-13 -7.307081e-10 8.732587e-13 1.212586e+01" pbc="T T T"
O 1.174164e+00 -2.972779e-12 4.305476e-12 -1.183746e+00 -4.893207e-13 -1.280728e-13
C -1.330538e-03 -3.385772e-12 4.134930e-12 9.810518e-01 4.383837e-13 8.736620e-14
O -1.166037e+00 -3.787622e-12 3.957039e-12 2.026513e-01 4.433114e-14 3.170950e-14
3
Lattice="1.800000e+01 0.000000e+00 0.000000e+00 0.000000e+00 1.800000e+01 0.000000e+00 0.000000e+00 0.000000e+00 1.800000e+01" Properties=species:S:1:pos:R:3:force:R:3 energy=8.112765e-04 dipole="-1.850028e-02 -1.800831e-14 8.695437e-15" pol="2.582436e+01 2.334100e-12 -5.979220e-10 2.334100e-12 1.202072e+01 -5.149857e-13 -5.979220e-10 -5.149857e-13 1.202072e+01" pbc="T T T"
O 1.165017e+00 -3.199161e-12 4.709075e-12 -1.175379e-01 -1.511288e-13 7.218747e-14
C -3.139715e-04 -3.522276e-12 4.513006e-12 7.730479e-01 3.901345e-13 -1.163099e-13
O -1.157680e+00 -3.817306e-12 4.289432e-12 -6.555616e-01 -1.959866e-13 3.999522e-14
3
Lattice="1.800000e+01 0.000000e+00 0.000000e+00 0.000000e+00 1.800000e+01 0.000000e+00 0.000000e+00 0.000000e+00 1.800000e+01" Properties=species:S:1:pos:R:3:force:R:3 energy=9.125612e-03 dipole="3.846916e-02 -1.040546e-15 2.158309e-14" pol="2.567885e+01 -8.570698e-10 1.081118e-10 -8.570698e-10 1.198313e+01 3.828780e-12 1.081118e-10 3.828780e-12 1.198313e+01" pbc="T T T"
O 1.158283e+00 -3.584557e-12 5.466757e-12 1.498069e+00 6.927380e-14 4.716984e-13
C 8.559247e-03 -3.708965e-12 5.162578e-12 -1.642104e+00 -9.442704e-14 -5.244595e-13
O -1.157660e+00 -3.824765e-12 4.838475e-12 1.441298e-01 -4.861530e-14 7.450593e-14
3
Lattice="1.800000e+01 0.000000e+00 0.000000e+00 0.000000e+00 1.800000e+01 0.000000e+00 0.000000e+00 0.000000e+00 1.800000e+01" Properties=species:S:1:pos:R:3:force:R:3 energy=2.460980e-03 dipole="1.268096e-02 1.410970e-14 -7.217506e-15" pol="2.569735e+01 -2.158885e-11 -5.822898e-10 -2.158885e-11 1.198606e+01 2.645474e-12 -5.822898e-10 2.645474e-12 1.198606e+01" pbc="T T T"
O 1.160284e+00 -3.739136e-12 5.851949e-12 8.657702e-01 1.502761e-13 1.473153e-13
C 4.528267e-03 -3.804549e-12 5.516054e-12 -5.393644e-01 -2.132585e-13 4.567588e-14
O -1.156668e+00 -3.896848e-12 5.202725e-12 -3.263707e-01 1.069538e-13 -2.036547e-13
3
Lattice="1.800000e+01 0.000000e+00 0.000000e+00 0.000000e+00 1.800000e+01 0.000000e+00 0.000000e+00 0.000000e+00 1.800000e+01" Properties=species:S:1:pos:R:3:force:R:3 energy=4.068664e-03 dipole="2.446516e-02 -6.795766e-16 5.807204e-15" pol="2.571335e+01 9.732054e-10 3.913175e-10 9.732054e-10 1.199110e+01 4.373488e-12 3.913175e-10 4.373488e-12 1.199110e+01" pbc="T T T"
O 1.159923e+00 -3.796677e-12 6.038855e-12 1.083856e+00 6.370579e-14 1.943231e-13
C 6.361834e-03 -3.869108e-12 5.729605e-12 -1.038596e+00 -7.627913e-14 -2.048058e-13
O -1.157700e+00 -3.940765e-12 5.420807e-12 -4.519450e-02 -1.762271e-14 -7.831428e-14
3
Lattice="1.800000e+01 0.000000e+00 0.000000e+00 0.000000e+00 1.800000e+01 0.000000e+00 0.000000e+00 0.000000e+00 1.800000e+01" Properties=species:S:1:pos:R:3:force:R:3 energy=3.047244e-03 dipole="-4.697867e-03 1.755081e-14 -1.395346e-14" pol="2.620333e+01 -6.807227e-11 -1.692474e-10 -6.807227e-11 1.212174e+01 6.809658e-13 -1.692474e-10 6.809658e-13 1.212174e+01" pbc="T T T"
O 1.172718e+00 -3.888250e-12 6.518058e-12 -7.756316e-01 1.435384e-13 -2.485216e-13
C 1.784285e-03 -3.979707e-12 6.279716e-12 1.860281e-01 -2.691042e-13 2.686167e-13
O -1.167106e+00 -4.113274e-12 6.063942e-12 5.895949e-01 1.943750e-13 -2.104014e-14
3
Lattice="1.800000e+01 0.000000e+00 0.000000e+00 0.000000e+00 1.800000e+01 0.000000e+00 0.000000e+00 0.000000e+00 1.800000e+01" Properties=species:S:1:pos:R:3:force:R:3 energy=6.642987e-03 dipole="2.918389e-02 8.614746e-16 8.845779e-16" pol="2.566442e+01 -7.691927e-10 -3.211416e-10 -7.691927e-10 1.197822e+01 -4.268986e-12 -3.211416e-10 -4.268986e-12 1.197822e+01" pbc="T T T"
O 1.158491e+00 -3.877894e-12 6.883297e-12 1.323940e+00 1.856264e-13 2.099820e-13
C 7.063181e-03 -4.069220e-12 6.696466e-12 -1.247703e+00 -1.082104e-13 -1.273841e-13
O -1.156874e+00 -4.255191e-12 6.513592e-12 -7.616216e-02 -8.305422e-14 -1.281540e-14
3
Lattice="1.800000e+01 0.000000e+00 0.000000e+00 0.000000e+00 1.800000e+01 0.000000e+00 0.000000e+00 0.000000e+00 1.800000e+01" Properties=species:S:1:pos:R:3:force:R:3 energy=2.006076e-03 dipole="2.486704e-02 3.067875e-14 -6.520353e-15" pol="2.603360e+01 7.685146e-10 1.706016e-10 7.685146e-10 1.207757e+01 -1.243604e-12 1.706016e-10 -1.243604e-12 1.207757e+01" pbc="T T T"
O 1.167065e+00 -3.800329e-12 8.154304e-12 2.512066e-01 2.593636e-13 -5.589025e-14
C 6.393964e-03 -4.171939e-12 7.868283e-12 -1.009144e+00 -6.183638e-13 -4.947867e-14
O -1.165043e+00 -4.594087e-12 7.599798e-12 7.579972e-01 4.203659e-13 1.053119e-13
3
Lattice="1.800000e+01 0.000000e+00 0.000000e+00 0.000000e+00 1.800000e+01 0.000000e+00 0.000000e+00 0.000000e+00 1.800000e+01" Properties=species:S:1:pos:R:3:force:R:3 energy=7.522729e-03 dipole="-4.454006e-02 -2.986026e-14 1.302886e-15" pol="2.591302e+01 1.176938e-10 -5.729542e-10 1.176938e-10 1.204759e+01 -1.335664e-12 -5.729542e-10 -1.335664e-12 1.204759e+01" pbc="T T T"
O 1.168321e+00 -3.871463e-12 8.897553e-12 -8.378311e-01 -4.537585e-13 -1.281687e-13
C -4.527542e-03 -4.239434e-12 8.596179e-12 1.840449e+00 8.157470e-13 3.400452e-13
O -1.158157e+00 -4.564631e-12 8.277286e-12 -1.002726e+00 -5.053826e-13 -1.584855e-13
3
Lattice="1.800000e+01 0.000000e+00 0.000000e+00 0.000000e+00 1.800000e+01 0.000000e+00 0.000000e+00 0.000000e+00 1.800000e+01" Properties=species:S:1:pos:R:3:force:R:3 energy=9.786050e-03 dipole="3.933412e-02 -9.617385e-15 1.001821e-14" pol="2.566771e+01 9.150519e-10 3.531892e-11 9.150519e-10 1.198020e+01 -6.682401e-12 3.531892e-11 -6.682401e-12 1.198020e+01" pbc="T T T"
O 1.157845e+00 -4.085580e-12 9.733456e-12 1.549056e+00 1.249484e-13 3.162118e-13
C 8.561672e-03 -4.251599e-12 9.515335e-12 -1.681738e+00 -1.609047e-14 -3.181038e-13
O -1.157583e+00 -4.392556e-12 9.289398e-12 1.327777e-01 -1.096475e-13 6.584641e-14
3
Lattice="1.800000e+01 0.000000e+00 0.000000e+00 0.000000e+00 1.800000e+01 0.000000e+00 0.000000e+00 0.000000e+00 1.800000e+01" Properties=species:S:1:pos:R:3:force:R:3 energy=1.447147e-03 dipole="-1.448512e-02 1.061045e-14 -2.081777e-14" pol="2.610923e+01 -8.082040e-10 -8.201695e-11 -8.082040e-10 1.209702e+01 -1.928854e-13 -8.201695e-11 -1.928854e-13 1.209702e+01" pbc="T T T"
O 1.171045e+00 -4.128767e-12 1.076421e-11 -7.405061e-01 1.696218e-14 -2.518967e-13
C 1.163692e-04 -4.219638e-12 1.057120e-11 5.813912e-01 -9.842024e-14 3.951645e-13
O -1.164528e+00 -4.332546e-12 1.041710e-11 1.590828e-01 1.134227e-13 -1.888913e-13
3
Lattice="1.800000e+01 0.000000e+00 0.000000e+00 0.000000e+00 1.800000e+01 0.000000e+00 0.000000e+00 0.000000e+00 1.800000e+01" Properties=species:S:1:pos:R:3:force:R:3 energy=9.967193e-03 dipole="-3.787813e-02 -2.070543e-15 1.872065e-14" pol="2.623519e+01 1.858087e-10 1.834573e-10 1.858087e-10 1.213337e+01 -6.334051e-12 1.834573e-10 -6.334051e-12 1.213337e+01" pbc="T T T"
O 1.175145e+00 -4.080393e-12 1.126399e-11 -1.471309e+00 -1.919303e-13 -4.440158e-14
C -3.607736e-03 -4.218278e-12 1.108409e-11 1.495168e+00 1.591229e-13 -1.099860e-13
O -1.165873e+00 -4.359028e-12 1.085794e-11 -2.391860e-02 -2.956598e-15 2.063117e-13
3
Lattice="1.800000e+01 0.000000e+00 0.000000e+00 0.000000e+00 1.800000e+01 0.000000e+00 0.000000e+00 0.000000e+00 1.800000e+01" Properties=species:S:1:pos:R:3:force:R:3 energy=-8.086831e-05 dipole="1.437599e-02 1.424307e-14 1.792493e-14" pol="2.585100e+01 2.408107e-10 -1.378159e-10 2.408107e-10 1.202767e+01 1.344846e-12 -1.378159e-10 1.344846e-12 1.202767e+01" pbc="T T T"
O 1.163494e+00 -4.036470e-12 1.159637e-11 4.963898e-01 2.079628e-13 2.313747e-13
C 4.629321e-03 -4.199645e-12 1.137731e-11 -5.983966e-01 -2.873829e-13 -3.113914e-13
O -1.160429e+00 -4.391074e-12 1.112735e-11 1.020470e-01 8.905815e-14 1.311937e-13
3
Lattice="1.800000e+01 0.000000e+00 0.000000e+00 0.000000e+00 1.800000e+01 0.000000e+00 0.000000e+00 0.000000e+00 1.800000e+01" Properties=species:S:1:pos:R:3:force:R:3 energy=6.925050e-03 dipole="3.474312e-02 -1.832769e-15 -1.010237e-14" pol="2.616321e+01 9.363511e-11 9.526325e-10 9.363511e-11 1.211357e+01 -3.589040e-12 9.526325e-10 -3.589040e-12 1.211357e+01" pbc="T T T"
O 1.169231e+00 -3.985422e-12 1.183713e-11 1.362431e-01 -4.649819e-14 -1.672093e-13
C 7.859980e-03 -4.202992e-12 1.155804e-11 -1.385116e+00 -8.269297e-14 2.417864e-14
O -1.168605e+00 -4.407823e-12 1.131504e-11 1.248939e+00 1.168981e-13 1.514081e-13
3
Lattice="1.800000e+01 0.000000e+00 0.000000e+00 0.000000e+00 1.800000e+01 0.000000e+00 0.000000e+00 0.000000e+00 1.800000e+01" Properties=species:S:1:pos:R:3:force:R:3 energy=5.838777e-03 dipole="-2.306094e-02 -1.415008e-14 -2.904336e-16" pol="2.564333e+01 -2.693997e-10 2.658040e-10 -2.693997e-10 1.197198e+01 6.181895e-13 2.658040e-10 6.181895e-13 1.197198e+01" pbc="T T T"
O 1.160883e+00 -3.722720e-12 1.389287e-11 2.541202e-01 2.285941e-14 -4.971674e-14
C -1.279377e-03 -3.998336e-12 1.363303e-11 9.886237e-01 3.123725e-13 2.330474e-13
O -1.153562e+00 -4.258907e-12 1.337308e-11 -1.242804e+00 -3.480414e-13 -2.589333e-13
3
Lattice="1.800000e+01 0.000000e+00 0.000000e+00 0.000000e+00 1.800000e+01 0.000000e+00 0.000000e+00 0.000000e+00 1.800000e+01" Properties=species:S:1:pos:R:3:force:R:3 energy=1.521249e-03 dipole="2.269392e-02 -1.316917e-14 -9.131642e-15" pol="2.583054e+01 1.557038e-10 7.187804e-10 1.557038e-10 1.202268e+01 -2.512520e-13 7.187804e-10 -2.512520e-13 1.202268e+01" pbc="T T T"
O 1.162421e+00 -3.611494e-12 1.495858e-11 7.311438e-01 -9.805393e-15 6.144920e-14
C 5.830414e-03 -3.804927e-12 1.476957e-11 -9.475876e-01 1.398699e-13 7.135822e-14
O -1.160532e+00 -3.965995e-12 1.460558e-11 2.165062e-01 -1.331803e-13 -5.663371e-14
3
Lattice="1.800000e+01 0.000000e+00 0.000000e+00 0.000000e+00 1.800000e+01 0.000000e+00 0.000000e+00 0.000000e+00 1.800000e+01" Properties=species:S:1:pos:R:3:force:R:3 energy=4.588336e-03 dipole="1.544392e-02 -1.603464e-15 8.825624e-15" pol="2.563969e+01 5.856919e-11 5.946534e-11 5.856919e-11 1.197054e+01 -5.710574e-13 5.946534e-11 -5.710574e-13 1.197054e+01" pbc="T T T"
O 1.158524e+00 -3.538412e-12 1.529686e-11 1.082213e+00 1.240013e-13 2.170613e-13
C 4.674023e-03 -3.723802e-12 1.512132e-11 -6.622752e-01 -3.620373e-14 -1.956686e-13
O -1.155792e+00 -3.902453e-12 1.493418e-11 -4.198970e-01 -9.742926e-14 2.948283e-15
3
Lattice="1.800000e+01 0.000000e+00 0.000000e+00 0.000000e+00 1.800000e+01 0.000000e+00 0.000000e+00 0.000000e+00 1.800000e+01" Properties=species:S:1:pos:R:3:force:R:3 energy=6.753647e-03 dipole="3.836874e-02 1.615635e-14 1.741271e-14" pol="2.577346e+01 -5.513570e-10 -7.052999e-10 -5.513570e-10 1.200885e+01 2.903699e-12 -7.052999e-10 2.903699e-12 1.200885e+01" pbc="T T T"
O 1.160119e+00 -3.366123e-12 1.596574e-11 1.236538e+00 2.949982e-13 2.974743e-13
C 8.246987e-03 -3.571917e-12 1.574692e-11 -1.616188e+00 -5.173684e-13 -4.363404e-13
O -1.160120e+00 -3.814249e-12 1.550633e-11 3.797479e-01 1.293007e-13 1.382867e-13
3
Lattice="1.800000e+01 0.000000e+00 0.000000e+00 0.000000e+00 1.800000e+01 0.000000e+00 0.000000e+00 0.000000e+00 1.800000e+01" Properties=species:S:1:pos:R:3:force:R:3 energy=9.294900e-03 dipole="4.035509e-02 9.121483e-15 2.433913e-15" pol="2.569663e+01 2.344917e-10 -1.938285e-10 2.344917e-10 1.198821e+01 1.032265e-13 -1.938285e-10 1.032265e-13 1.198821e+01" pbc="T T T"
O 1.158233e+00 -3.124915e-12 1.679916e-11 1.492836e+00 2.913755e-13 3.137126e-13
C 8.523047e-03 -3.411139e-12 1.649262e-11 -1.718498e+00 -4.086941e-13 -2.732128e-13
O -1.158499e+00 -3.696398e-12 1.620216e-11 2.257615e-01 1.326770e-14 -6.702711e-14
3
Lattice="1.800000e+01 0.000000e+00 0.000000e+00 0.000000e+00 1.800000e+01 0.000000e+00 0.000000e+00 0.000000e+00 1.800000e+01" Properties=species:S:1:pos:R:3:force:R:3 energy=4.960946e-03 dipole="2.687024e-02 -1.901070e-15 8.003467e-15" pol="2.570117e+01 6.509747e-10 -2.468037e-10 6.509747e-10 1.198799e+01 2.224654e-13 -2.468037e-10 2.224654e-13 1.198799e+01" pbc="T T T"
O 1.159163e+00 -2.937309e-12 1.749424e-11 1.171046e+00 1.768845e-13 3.308963e-13
C 6.401058e-03 -3.246162e-12 1.716967e-11 -1.142758e+00 -1.360817e-13 -2.937663e-13
O -1.157890e+00 -3.540124e-12 1.684221e-11 -2.821645e-02 -4.796260e-14 -5.483668e-14
3
Lattice="1.800000e+01 0.000000e+00 0.000000e+00 0.000000e+00 1.800000e+01 0.000000e+00 0.000000e+00 0.000000e+00 1.800000e+01" Properties=species:S:1:pos:R:3:force:R:3 energy=1.586243e-03 dipole="1.870803e-02 2.017711e-14 9.418566e-15" pol="2.577504e+01 -2.826362e-11 -5.153632e-10 -2.826362e-11 1.200740e+01 4.162405e-13 -5.153632e-10 4.162405e-13 1.200740e+01" pbc="T T T"
O 1.161335e+00 -2.890962e-12 1.771658e-11 7.906097e-01 3.092796e-13 2.269460e-13
C 5.127078e-03 -3.170539e-12 1.739712e-11 -7.871804e-01 -4.116843e-13 -2.664063e-13
O -1.159124e+00 -3.483259e-12 1.706477e-11 -3.377169e-03 1.557941e-13 6.892604e-14
3
Lattice="1.800000e+01 0.000000e+00 0.000000e+00 0.000000e+00 1.800000e+01 0.000000e+00 0.000000e+00 0.000000e+00 1.800000e+01" Properties=species:S:1:pos:R:3:force:R:3 energy=-9.404285e-05 dipole="9.017449e-03 2.434727e-14 1.567202e-14" pol="2.605175e+01 1.335404e-11 7.892280e-11 1.335404e-11 1.208138e+01 -1.471667e-12 7.892280e-11 -1.471667e-12 1.208138e+01" pbc="T T T"
O 1.168161e+00 -2.794101e-12 1.815404e-11 -1.291826e-01 1.541615e-13 5.413125e-14
C 3.611033e-03 -3.034333e-12 1.785897e-11 -3.648353e-01 -4.288130e-13 -2.961326e-13
O -1.164845e+00 -3.324531e-12 1.753406e-11 4.940398e-01 3.240743e-13 1.969267e-13
3
Lattice="1.800000e+01 0.000000e+00 0.000000e+00 0.000000e+00 1.800000e+01 0.000000e+00 0.000000e+00 0.000000e+00 1.800000e+01" Properties=species:S:1:pos:R:3:force:R:3 energy=2.562217e-03 dipole="-2.512969e-02 -2.727398e-14 -2.797844e-14" pol="2.607031e+01 -2.890205e-10 -1.198284e-11 -2.890205e-10 1.208745e+01 -1.857507e-12 -1.198284e-11 -1.857507e-12 1.208745e+01" pbc="T T T"
O 1.170548e+00 -2.721311e-12 1.843490e-11 -8.510997e-01 -3.664159e-13 -4.477831e-13
C -1.775986e-03 -2.984050e-12 1.812120e-11 1.014554e+00 5.687583e-13 5.759863e-13
O -1.163209e+00 -3.200814e-12 1.785272e-11 -1.635116e-01 -1.986757e-13 -1.594241e-13
3
Lattice="1.800000e+01 0.000000e+00 0.000000e+00 0.000000e+00 1.800000e+01 0.000000e+00 0.000000e+00 0.000000e+00 1.800000e+01" Properties=species:S:1:pos:R:3:force:R:3 energy=3.900371e-03 dipole="2.543030e-02 1.842829e-14 2.025870e-14" pol="2.572926e+01 -2.219461e-11 -6.052789e-10 -2.219461e-11 1.199549e+01 -4.028811e-12 -6.052789e-10 -4.028811e-12 1.199549e+01" pbc="T T T"
O 1.159830e+00 -2.460301e-12 1.945058e-11 1.062500e+00 2.192476e-13 2.438837e-13
C 6.120067e-03 -2.618638e-12 1.926281e-11 -1.077194e+00 -3.971299e-13 -3.753470e-13
O -1.158510e+00 -2.805620e-12 1.904354e-11 1.476195e-02 1.567029e-13 9.507201e-14
3
Lattice="1.800000e+01 0.000000e+00 0.000000e+00 0.000000e+00 1.800000e+01 0.000000e+00 0.000000e+00 0.000000e+00 1.800000e+01" Properties=species:S:1:pos:R:3:force:R:3 energy=1.211962e-03 dipole="2.176271e-02 2.213970e-14 7.256726e-15" pol="2.584179e+01 -1.284575e-10 2.059403e-10 -1.284575e-10 1.202565e+01 6.571975e-12 2.059403e-10 6.571975e-12 1.202565e+01" pbc="T T T"
O 1.162584e+00 -2.214198e-12 2.016530e-11 6.809966e-01 2.410876e-13 1.722826e-13
C 5.536244e-03 -2.380418e-12 1.999728e-11 -9.072368e-01 -2.921444e-13 -1.137173e-13
O -1.160885e+00 -2.572532e-12 1.982286e-11 2.263002e-01 1.018124e-13 -3.631926e-14
3
Lattice="1.800000e+01 0.000000e+00 0.000000e+00 0.000000e+00 1.800000e+01 0.000000e+00 0.000000e+00 0.000000e+00 1.800000e+01" Properties=species:S:1:pos:R:3:force:R:3 energy=4.621474e-03 dipole="-3.562679e-02 -2.174200e-14 -6.715566e-15" pol="2.601102e+01 -1.274615e-10 4.046091e-10 -1.274615e-10 1.207276e+01 3.527434e-12 4.046091e-10 3.527434e-12 1.207276e+01" pbc="T T T"
O 1.169697e+00 -1.735142e-12 2.139776e-11 -9.068698e-01 -3.620461e-13 -1.194361e-13
C -3.507325e-03 -2.002296e-12 2.117629e-11 1.451173e+00 5.429774e-13 3.312396e-13
O -1.161298e+00 -2.238571e-12 2.096389e-11 -5.443873e-01 -2.390764e-13 -1.522276e-13
3
Lattice="1.800000e+01 0.000000e+00 0.000000e+00 0.000000e+00 1.800000e+01 0.000000e+00 0.000000e+00 0.000000e+00 1.800000e+01" Properties=species:S:1:pos:R:3:force:R:3 energy=8.660996e-03 dipole="4.456150e-02 5.353681e-15 1.421107e-14" pol="2.579828e+01 -6.572425e-10 5.008494e-10 -6.572425e-10 1.201645e+01 -3.532308e-12 5.008494e-10 -3.532308e-12 1.201645e+01" pbc="T T T"
O 1.160114e+00 -1.548874e-12 2.188902e-11 1.312101e+00 2.361911e-13 3.522399e-13
C 9.051444e-03 -1.837702e-12 2.163928e-11 -1.871238e+00 -3.714842e-13 -5.021377e-13
O -1.161181e+00 -2.119351e-12 2.137700e-11 5.592471e-01 7.128989e-14 1.207299e-13
3
Lattice="1.800000e+01 0.000000e+00 0.000000e+00 0.000000e+00 1.800000e+01 0.000000e+00 0.000000e+00 0.000000e+00 1.800000e+01" Properties=species:S:1:pos:R:3:force:R:3 energy=1.043350e-03 dipole="-2.307588e-02 8.324623e-15 -6.522831e-15" pol="2.591385e+01 2.085081e-10 6.731001e-10 2.085081e-10 1.204519e+01 1.061688e-12 6.731001e-10 1.061688e-12 1.204519e+01" pbc="T T T"
O 1.166769e+00 -1.080767e-12 2.321838e-11 -4.313807e-01 -1.071610e-13 -1.233318e-13
C -1.570645e-03 -1.371008e-12 2.288469e-11 9.523150e-01 9.801930e-14 2.877043e-13
O -1.159952e+00 -1.680430e-12 2.255727e-11 -5.209960e-01 -1.191139e-13 -1.297166e-13
3
Lattice="1.800000e+01 0.000000e+00 0.000000e+00 0.000000e+00 1.800000e+01 0.000000e+00 0.000000e+00 0.000000e+00 1.800000e+01" Properties=species:S:1:pos:R:3:force:R:3 energy=3.044139e-03 dipole="3.132699e-02 -1.052178e-15 1.483869e-14" pol="2.595308e+01 1.494053e-10 7.826754e-11 1.494053e-10 1.205660e+01 5.889377e-13 7.826754e-11 5.889377e-13 1.205660e+01" pbc="T T T"
O 1.164394e+00 -8.354731e-13 2.396246e-11 5.998490e-01 8.809360e-14 1.238085e-13
C 6.947430e-03 -1.095365e-12 2.364886e-11 -1.286175e+00 -1.737267e-13 -3.801878e-13
O -1.164033e+00 -1.342139e-12 2.331887e-11 6.864050e-01 7.645759e-14 2.474545e-13
3
Lattice="1.800000e+01 0.000000e+00 0.000000e+00 0.000000e+00 1.800000e+01 0.000000e+00 0.000000e+00 0.000000e+00 1.800000e+01" Properties=species:S:1:pos:R:3:force:R:3 energy=4.477138e-03 dipole="3.016462e-02 5.137488e-15 1.276895e-14" pol="2.575811e+01 -1.721711e-10 2.459347e-10 -1.721711e-10 1.200375e+01 -8.342659e-13 2.459347e-10 -8.342659e-13 1.200375e+01" pbc="T T T"
O 1.160040e+00 -5.106323e-13 2.488335e-11 1.091204e+00 1.719777e-13 3.161613e-13
C 6.713637e-03 -6.877083e-13 2.464027e-11 -1.272813e+00 -1.972264e-13 -4.436807e-13
O -1.159576e+00 -8.684034e-13 2.437348e-11 1.816898e-01 3.850276e-15 1.651089e-13
3
Lattice="1.800000e+01 0.000000e+00 0.000000e+00 0.000000e+00 1.800000e+01 0.000000e+00 0.000000e+00 0.000000e+00 1.800000e+01" Properties=species:S:1:pos:R:3:force:R:3 energy=7.737284e-04 dipole="2.096340e-02 1.898425e-14 1.399734e-14" pol="2.587687e+01 -2.279914e-10 9.149183e-11 -2.279914e-10 1.203506e+01 2.986712e-12 9.149183e-11 2.986712e-12 1.203506e+01" pbc="T T T"
O 1.163286e+00 -3.605810e-13 2.527688e-11 5.714585e-01 2.071194e-13 2.135926e-13
C 5.274323e-03 -5.088187e-13 2.506469e-11 -8.695866e-01 -2.825692e-13 -3.333525e-13
O -1.161775e+00 -6.881220e-13 2.482856e-11 2.981855e-01 1.704176e-13 1.105622e-13
3
Lattice="1.800000e+01 0.000000e+00 0.000000e+00 0.000000e+00 1.800000e+01 0.000000e+00 0.000000e+00 0.000000e+00 1.800000e+01" Properties=species:S:1:pos:R:3:force:R:3 energy=1.704522e-03 dipole="-1.664883e-02 5.913677e-15 9.119551e-15" pol="2.575159e+01 8.837810e-11 -7.389511e-11 8.837810e-11 1.200093e+01 -9.278128e-13 -7.389511e-11 -9.278128e-13 1.200093e+01" pbc="T T T"
O 1.162639e+00 1.011686e-13 2.631779e-11 1.049547e-01 1.511584e-13 1.166346e-13
C -6.398018e-04 -6.261379e-14 2.613641e-11 7.028111e-01 -6.271296e-14 2.024995e-14
O -1.156765e+00 -2.482141e-13 2.593354e-11 -8.078122e-01 -6.430265e-14 -1.417386e-13
3
Lattice="1.800000e+01 0.000000e+00 0.000000e+00 0.000000e+00 1.800000e+01 0.000000e+00 0.000000e+00 0.000000e+00 1.800000e+01" Properties=species:S:1:pos:R:3:force:R:3 energy=4.220827e-03 dipole="2.950879e-02 7.434214e-15 2.080754e-14" pol="2.576191e+01 -4.966355e-13 5.909755e-10 -4.966355e-13 1.200472e+01 -1.603188e-12 5.909755e-10 -1.603188e-12 1.200472e+01" pbc="T T T"
O 1.160109e+00 4.025042e-13 2.695157e-11 1.066139e+00 2.742733e-13 2.957181e-13
C 6.553129e-03 1.941999e-13 2.675677e-11 -1.244437e+00 -2.519023e-13 -3.789549e-13
O -1.159685e+00 -2.579275e-14 2.653370e-11 1.783771e-01 4.524833e-14 1.641232e-13
3
Lattice="1.800000e+01 0.000000e+00 0.000000e+00 0.000000e+00 1.800000e+01 0.000000e+00 0.000000e+00 0.000000e+00 1.800000e+01" Properties=species:S:1:pos:R:3:force:R:3 energy=-1.328496e-03 dipole="-1.208071e-03 -4.836023e-15 9.120706e-15" pol="2.591841e+01 -4.312040e-12 -2.048071e-10 -4.312040e-12 1.204548e+01 -3.011376e-14 -2.048071e-10 -3.011376e-14 1.204548e+01" pbc="T T T"
O 1.165500e+00 7.034724e-13 2.755281e-11 -4.659290e-03 -4.322503e-14 1.061707e-13
C 1.738295e-03 4.406578e-13 2.732609e-11 4.976608e-02 -1.276233e-14 -2.089094e-13
O -1.161502e+00 1.727063e-13 2.707313e-11 -4.511013e-02 -6.761721e-14 1.138854e-13
3
Lattice="1.800000e+01 0.000000e+00 0.000000e+00 0.000000e+00 1.800000e+01 0.000000e+00 0.000000e+00 0.000000e+00 1.800000e+01" Properties=species:S:1:pos:R:3:force:R:3 energy=1.245312e-02 dipole="4.483614e-02 7.872632e-15 1.491383e-14" pol="2.623770e+01 1.222340e-09 1.511352e-11 1.222340e-09 1.213532e+01 -5.240163e-14 1.511352e-11 -5.240163e-14 1.213532e+01" pbc="T T T"
O 1.169766e+00 1.025833e-12 2.822810e-11 1.696905e-01 -2.600358e-14 9.392350e-14
C 9.006564e-03 7.187100e-13 2.795440e-11 -1.770085e+00 -4.141597e-13 -4.753540e-13
O -1.171270e+00 4.117595e-13 2.766754e-11 1.600463e+00 4.269877e-13 3.937376e-13
3
Lattice="1.800000e+01 0.000000e+00 0.000000e+00 0.000000e+00 1.800000e+01 0.000000e+00 0.000000e+00 0.000000e+00 1.800000e+01" Properties=species:S:1:pos:R:3:force:R:3 energy=4.282190e-03 dipole="3.521973e-02 4.750570e-15 6.411454e-15" pol="2.597935e+01 -1.912103e-10 3.428638e-10 -1.912103e-10 1.206417e+01 2.995265e-12 3.428638e-10 2.995265e-12 1.206417e+01" pbc="T T T"
O 1.164603e+00 1.312166e-12 2.886354e-11 6.176543e-01 1.738336e-13 7.716513e-14
C 7.428638e-03 9.863487e-13 2.855824e-11 -1.440964e+00 -3.179958e-13 -2.874574e-13
O -1.164971e+00 6.670516e-13 2.825481e-11 8.233954e-01 2.359016e-13 1.872525e-13
3
Lattice="1.800000e+01 0.000000e+00 0.000000e+00 0.000000e+00 1.800000e+01 0.000000e+00 0.000000e+00 0.000000e+00 1.800000e+01" Properties=species:S:1:pos:R:3:force:R:3 energy=8.611650e-03 dipole="4.061021e-02 7.825345e-15 1.855488e-14" pol="2.615546e+01 -8.965137e-10 -2.239523e-10 -8.965137e-10 1.211242e+01 -1.321842e-13 -2.239523e-10 -1.321842e-13 1.211242e+01" pbc="T T T"
O 1.168151e+00 2.002633e-12 3.050026e-11 2.841133e-01 4.762621e-14 8.059399e-14
C 8.261177e-03 1.752856e-12 3.021164e-11 -1.621401e+00 -3.070765e-13 -4.707347e-13
O -1.169268e+00 1.500695e-12 2.990327e-11 1.337364e+00 2.746756e-13 4.186431e-13
3
Lattice="1.800000e+01 0.000000e+00 0.000000e+00 0.000000e+00 1.800000e+01 0.000000e+00 0.000000e+00 0.000000e+00 1.800000e+01" Properties=species:S:1:pos:R:3:force:R:3 energy=8.432038e-03 dipole="-4.002277e-02 -7.096977e-15 -1.677766e-14" pol="2.615637e+01 5.153296e-10 2.002309e-10 5.153296e-10 1.211256e+01 1.393366e-13 2.002309e-10 1.393366e-13 1.211256e+01" pbc="T T T"
O 1.172931e+00 2.341365e-12 3.130806e-11 -1.328865e+00 -2.323632e-13 -3.301891e-13
C -4.494364e-03 2.156066e-12 3.104501e-11 1.597680e+00 2.477142e-13 4.933952e-13
O -1.164536e+00 1.971716e-12 3.080230e-11 -2.688891e-01 2.312617e-14 -1.015906e-13
3
Lattice="1.800000e+01 0.000000e+00 0.000000e+00 0.000000e+00 1.800000e+01 0.000000e+00 0.000000e+00 0.000000e+00 1.800000e+01" Properties=species:S:1:pos:R:3:force:R:3 energy=2.827705e-03 dipole="-2.409245e-02 -9.874957e-16 -1.384305e-16" pol="2.576504e+01 -2.106629e-11 3.412989e-10 -2.106629e-11 1.200508e+01 -3.366435e-12 3.412989e-10 -3.366435e-12 1.200508e+01" pbc="T T T"
O 1.163103e+00 4.708821e-12 3.591361e-11 -7.906381e-02 -1.725056e-14 -5.566400e-14
C -2.062334e-03 4.379895e-12 3.562960e-11 1.015349e+00 3.134309e-13 1.731390e-13
O -1.156872e+00 4.051532e-12 3.533882e-11 -9.363507e-01 -2.790678e-13 -2.258793e-13
3
Lattice="1.800000e+01 0.000000e+00 0.000000e+00 0.000000e+00 1.800000e+01 0.000000e+00 0.000000e+00 0.000000e+00 1.800000e+01" Properties=species:S:1:pos:R:3:force:R:3 energy=2.599092e-03 dipole="9.114003e-04 -3.189812e-15 -1.517007e-14" pol="2.566679e+01 3.324281e-10 1.075748e-10 3.324281e-10 1.197755e+01 -1.403557e-12 1.075748e-10 -1.403557e-12 1.197755e+01" pbc="T T T"
O 1.159334e+00 6.526341e-12 3.976682e-11 6.925797e-01 1.015087e-13 -2.886619e-14
C 1.738715e-03 6.386034e-12 3.953466e-11 -3.888046e-02 -3.192518e-15 2.607957e-13
O -1.156247e+00 6.247915e-12 3.933694e-11 -6.536967e-01 -7.687735e-14 -3.267988e-13
3
Lattice="1.800000e+01 0.000000e+00 0.000000e+00 0.000000e+00 1.800000e+01 0.000000e+00 0.000000e+00 0.000000e+00 1.800000e+01" Properties=species:S:1:pos:R:3:force:R:3 energy=1.110846e-02 dipole="-4.179388e-02 -5.215764e-15 -2.098449e-15" pol="2.565576e+01 -2.774703e-11 4.583589e-10 -2.774703e-11 1.197725e+01 -7.598244e-13 4.583589e-10 -7.598244e-13 1.197725e+01" pbc="T T T"
O 1.161444e+00 6.996938e-12 4.070042e-11 -1.504384e-01 -2.144456e-14 4.316479e-14
C -4.940426e-03 6.883727e-12 4.049924e-11 1.790165e+00 2.163216e-13 2.662463e-13
O -1.153415e+00 6.776358e-12 4.029415e-11 -1.639826e+00 -1.537266e-13 -2.766390e-13
3
Lattice="1.800000e+01 0.000000e+00 0.000000e+00 0.000000e+00 1.800000e+01 0.000000e+00 0.000000e+00 0.000000e+00 1.800000e+01" Properties=species:S:1:pos:R:3:force:R:3 energy=7.040987e-03 dipole="2.805578e-02 7.412050e-15 4.231365e-14" pol="2.622839e+01 2.444617e-10 -2.223554e-10 2.444617e-10 1.213011e+01 3.436152e-12 -2.223554e-10 3.436152e-12 1.213011e+01" pbc="T T T"
O 1.170274e+00 7.835446e-12 4.226829e-11 -1.696460e-01 5.117998e-14 2.254471e-13
C 5.969135e-03 7.712130e-12 4.207401e-11 -1.107879e+00 -2.049228e-13 -8.410922e-13
O -1.170547e+00 7.573870e-12 4.179032e-11 1.277571e+00 1.762286e-13 6.453332e-13
3
Lattice="1.800000e+01 0.000000e+00 0.000000e+00 0.000000e+00 1.800000e+01 0.000000e+00 0.000000e+00 0.000000e+00 1.800000e+01" Properties=species:S:1:pos:R:3:force:R:3 energy=3.879199e-03 dipole="-6.863914e-03 3.269446e-15 4.620439e-14" pol="2.622618e+01 2.529674e-10 2.548465e-10 2.529674e-10 1.212788e+01 3.864031e-13 2.548465e-10 3.864031e-13 1.212788e+01" pbc="T T T"
O 1.172340e+00 8.235692e-12 4.298241e-11 -8.722832e-01 -6.415309e-14 9.848946e-14
C 4.247946e-04 8.072506e-12 4.276618e-11 2.709398e-01 -4.744578e-14 -6.228406e-13
O -1.168504e+00 7.898352e-12 4.246158e-11 6.013315e-01 1.551299e-13 4.621498e-13
3
Lattice="1.800000e+01 0.000000e+00 0.000000e+00 0.000000e+00 1.800000e+01 0.000000e+00 0.000000e+00 0.000000e+00 1.800000e+01" Properties=species:S:1:pos:R:3:force:R:3 energy=-7.161237e-04 dipole="7.396315e-03 -4.205472e-15 -3.900831e-14" pol="2.600834e+01 3.051434e-10 -2.723441e-10 3.051434e-10 1.206970e+01 2.655249e-12 -2.723441e-10 2.655249e-12 1.206970e+01" pbc="T T T"
O 1.166539e+00 9.668423e-12 4.538611e-11 -5.397004e-02 1.817217e-15 -3.357513e-13
C 2.611566e-03 9.347400e-12 4.506181e-11 -3.010738e-01 -2.684286e-14 5.497010e-13
O -1.164516e+00 9.028147e-12 4.481983e-11 3.550628e-01 9.804668e-14 -1.935343e-13
3
Lattice="1.800000e+01 0.000000e+00 0.000000e+00 0.000000e+00 1.800000e+01 0.000000e+00 0.000000e+00 0.000000e+00 1.800000e+01" Properties=species:S:1:pos:R:3:force:R:3 energy=6.260061e-03 dipole="2.921758e-02 1.693869e-14 5.936782e-14" pol="2.619386e+01 3.538308e-10 -3.607413e-11 3.538308e-10 1.212102e+01 -3.207152e-12 -3.607413e-11 -3.207152e-12 1.212102e+01" pbc="T T T"
O 1.169318e+00 1.028245e-11 4.644332e-11 -5.935338e-02 -3.333401e-14 4.048454e-13
C 6.038077e-03 9.958977e-12 4.623713e-11 -1.159454e+00 -3.760184e-13 -1.056515e-12
O -1.169947e+00 9.621041e-12 4.592150e-11 1.218860e+00 3.856653e-13 7.685411e-13
3
Lattice="1.800000e+01 0.000000e+00 0.000000e+00 0.000000e+00 1.800000e+01 0.000000e+00 0.000000e+00 0.000000e+00 1.800000e+01" Properties=species:S:1:pos:R:3:force:R:3 energy=1.248461e-04 dipole="1.813966e-02 -2.853426e-15 3.895310e-14" pol="2.592448e+01 -6.706192e-10 -4.908359e-11 -6.706192e-10 1.204768e+01 -4.022192e-12 -4.908359e-11 -4.022192e-12 1.204768e+01" pbc="T T T"
O 1.163850e+00 1.252374e-11 5.070945e-11 3.865910e-01 1.812786e-14 4.047417e-13
C 4.150782e-03 1.238719e-11 5.047939e-11 -7.473597e-01 -2.323795e-14 -7.098685e-13
O -1.163379e+00 1.225829e-11 5.017355e-11 3.608175e-01 1.559682e-14 3.611903e-13
3
Lattice="1.800000e+01 0.000000e+00 0.000000e+00 0.000000e+00 1.800000e+01 0.000000e+00 0.000000e+00 0.000000e+00 1.800000e+01" Properties=species:S:1:pos:R:3:force:R:3 energy=3.871952e-03 dipole="-3.397700e-02 -5.377046e-15 -4.764471e-14" pol="2.597259e+01 -1.879027e-10 -4.685277e-10 -1.879027e-10 1.206218e+01 1.119342e-12 -4.685277e-10 1.119342e-12 1.206218e+01" pbc="T T T"
O 1.167935e+00 1.285365e-11 5.128138e-11 -7.837446e-01 -1.625575e-13 -5.356113e-13
C -4.048482e-03 1.271190e-11 5.097083e-11 1.391346e+00 1.944649e-13 9.119651e-13
O -1.161346e+00 1.257460e-11 5.074414e-11 -6.076854e-01 -1.844525e-13 -4.486739e-13
3
Lattice="1.800000e+01 0.000000e+00 0.000000e+00 0.000000e+00 1.800000e+01 0.000000e+00 0.000000e+00 0.000000e+00 1.800000e+01" Properties=species:S:1:pos:R:3:force:R:3 energy=5.894936e-03 dipole="2.689547e-02 2.074079e-14 -2.236512e-15" pol="2.566919e+01 2.955807e-10 -3.571237e-10 2.955807e-10 1.197931e+01 3.086594e-12 -3.571237e-10 3.086594e-12 1.197931e+01" pbc="T T T"
O 1.157503e+00 1.315697e-11 5.176785e-11 1.258817e+00 1.686908e-13 1.371342e-13
C 5.468681e-03 1.301166e-11 5.149438e-11 -1.148987e+00 -2.541291e-13 -1.221124e-13
O -1.158096e+00 1.285042e-11 5.123870e-11 -1.097598e-01 8.803744e-15 -1.695391e-13
3
Lattice="1.800000e+01 0.000000e+00 0.000000e+00 0.000000e+00 1.800000e+01 0.000000e+00 0.000000e+00 0.000000e+00 1.800000e+01" Properties=species:S:1:pos:R:3:force:R:3 energy=5.070064e-03 dipole="-2.609211e-02 1.693726e-15 -5.317493e-14" pol="2.617741e+01 3.139177e-10 1.508149e-10 3.139177e-10 1.211625e+01 -1.614043e-12 1.508149e-10 -1.614043e-12 1.211625e+01" pbc="T T T"
O 1.172078e+00 1.370890e-11 5.263861e-11 -1.122610e+00 -1.731405e-13 -6.837962e-13
C -2.870091e-03 1.351614e-11 5.233286e-11 1.037673e+00 8.729419e-14 9.825741e-13
O -1.166478e+00 1.331036e-11 5.212779e-11 8.488746e-02 9.051125e-14 -3.542771e-13
3
Lattice="1.800000e+01 0.000000e+00 0.000000e+00 0.000000e+00 1.800000e+01 0.000000e+00 0.000000e+00 0.000000e+00 1.800000e+01" Properties=species:S:1:pos:R:3:force:R:3 energy=7.982195e-03 dipole="4.195807e-02 2.033722e-14 -3.060456e-14" pol="2.610306e+01 -2.724310e-10 5.683657e-10 -2.724310e-10 1.209854e+01 -8.721558e-13 5.683657e-10 -8.721558e-13 1.209854e+01" pbc="T T T"
O 1.166277e+00 1.419180e-11 5.335698e-11 4.476356e-01 1.900203e-13 -2.048211e-13
C 7.849071e-03 1.395170e-11 5.307469e-11 -1.687767e+00 -5.401553e-13 2.865208e-13
O -1.168777e+00 1.368826e-11 5.287599e-11 1.240217e+00 3.652276e-13 -1.701052e-13
3
Lattice="1.800000e+01 0.000000e+00 0.000000e+00 0.000000e+00 1.800000e+01 0.000000e+00 0.000000e+00 0.000000e+00 1.800000e+01" Properties=species:S:1:pos:R:3:force:R:3 energy=7.712568e-03 dipole="-2.935702e-02 -1.139151e-14 -2.051560e-14" pol="2.563392e+01 1.454500e-10 2.131000e-10 1.454500e-10 1.196994e+01 1.243784e-12 2.131000e-10 1.243784e-12 1.196994e+01" pbc="T T T"
O 1.159889e+00 1.532876e-11 5.511916e-11 1.512738e-01 3.374461e-15 -1.574439e-14
C -3.385430e-03 1.497429e-11 5.489249e-11 1.260508e+00 4.783777e-13 3.280820e-13
O -1.154086e+00 1.463332e-11 5.468164e-11 -1.411855e+00 -4.212496e-13 -2.989827e-13
3
Lattice="1.800000e+01 0.000000e+00 0.000000e+00 0.000000e+00 1.800000e+01 0.000000e+00 0.000000e+00 0.000000e+00 1.800000e+01" Properties=species:S:1:pos:R:3:force:R:3 energy=6.488740e-03 dipole="-3.836320e-02 -1.937970e-14 1.068603e-14" pol="2.578793e+01 1.697330e-10 8.546931e-10 1.697330e-10 1.201278e+01 -7.631320e-13 8.546931e-10 -7.631320e-13 1.201278e+01" pbc="T T T"
O 1.163862e+00 1.583448e-11 5.597739e-11 -4.155838e-01 -2.118871e-13 1.103902e-14
C -4.834245e-03 1.545832e-11 5.575780e-11 1.612674e+00 6.385946e-13 1.150721e-13
O -1.157032e+00 1.510446e-11 5.550660e-11 -1.197188e+00 -3.535319e-13 -1.470758e-13
3
Lattice="1.800000e+01 0.000000e+00 0.000000e+00 0.000000e+00 1.800000e+01 0.000000e+00 0.000000e+00 0.000000e+00 1.800000e+01" Properties=species:S:1:pos:R:3:force:R:3 energy=2.680668e-03 dipole="-2.863581e-02 5.500126e-15 -9.153494e-15" pol="2.585163e+01 -1.780899e-10 -4.187741e-10 -1.780899e-10 1.202892e+01 6.583652e-15 -4.187741e-10 6.583652e-15 1.202892e+01" pbc="T T T"
O 1.164621e+00 1.902621e-11 6.205802e-11 -3.856971e-01 3.694163e-14 -1.206675e-13
C -3.480411e-03 1.897635e-11 6.183670e-11 1.192433e+00 -3.588819e-14 2.698841e-13
O -1.159245e+00 1.891677e-11 6.162850e-11 -8.068128e-01 -6.020722e-14 -1.783618e-13
3
Lattice="1.800000e+01 0.000000e+00 0.000000e+00 0.000000e+00 1.800000e+01 0.000000e+00 0.000000e+00 0.000000e+00 1.800000e+01" Properties=species:S:1:pos:R:3:force:R:3 energy=-1.280886e-03 dipole="-1.498106e-03 -5.294328e-15 4.183972e-16" pol="2.589742e+01 -1.697463e-11 4.400538e-10 -1.697463e-11 1.203983e+01 1.398569e-12 4.400538e-10 1.398569e-12 1.203983e+01" pbc="T T T"
O 1.164030e+00 2.102990e-11 6.543545e-11 4.259932e-02 -4.799687e-14 -8.383560e-15
C 6.805362e-04 2.094322e-11 6.521824e-11 6.191251e-02 3.298820e-14 4.508037e-14
O -1.162023e+00 2.086152e-11 6.500133e-11 -1.045160e-01 -4.930289e-14 4.679984e-15
3
Lattice="1.800000e+01 0.000000e+00 0.000000e+00 0.000000e+00 1.800000e+01 0.000000e+00 0.000000e+00 0.000000e+00 1.800000e+01" Properties=species:S:1:pos:R:3:force:R:3 energy=1.402088e-03 dipole="-9.149352e-03 -7.352104e-16 -1.848716e-15" pol="2.572503e+01 3.636922e-10 5.346037e-10 3.636922e-10 1.199343e+01 -5.332826e-13 5.346037e-10 -5.332826e-13 1.199343e+01" pbc="T T T"
O 1.162376e+00 -4.631223e-15 1.181430e-15 3.274670e-01 -4.943805e-14 -8.900126e-15
C 1.300579e-03 -6.907549e-16 4.707688e-15 3.876137e-01 -1.760939e-14 -3.795173e-14
O -1.155846e+00 4.228267e-15 8.203389e-15 -7.151065e-01 6.135952e-14 -3.897875e-14
3
Lattice="1.800000e+01 0.000000e+00 0.000000e+00 0.000000e+00 1.800000e+01 0.000000e+00 0.000000e+00 0.000000e+00 1.800000e+01" Properties=species:S:1:pos:R:3:force:R:3 energy=-7.210544e-04 dipole="-1.013693e-02 2.880875e-15 -1.218592e-15" pol="2.587408e+01 2.247624e-10 -2.189052e-11 2.247624e-10 1.203371e+01 5.886838e-13 -2.189052e-11 5.886838e-13 1.203371e+01" pbc="T T T"
O 1.165817e+00 -7.537289e-15 3.517911e-15 -7.478137e-02 -3.819309e-14 4.634154e-14
C 1.140483e-03 2.235991e-15 1.152818e-14 4.205383e-01 3.059888e-14 -1.512908e-14
O -1.159166e+00 1.208832e-14 2.045418e-14 -3.457854e-01 -1.815244e-15 1.012932e-14
3
Lattice="1.800000e+01 0.000000e+00 0.000000e+00 0.000000e+00 1.800000e+01 0.000000e+00 0.000000e+00 0.000000e+00 1.800000e+01" Properties=species:S:1:pos:R:3:force:R:3 energy=9.778176e-04 dipole="-1.011508e-02 5.403825e-15 -9.689760e-15" pol="2.574789e+01 1.007204e-10 -2.095687e-12 1.007204e-10 1.199965e+01 -3.875435e-13 -2.095687e-12 -3.875435e-13 1.199965e+01" pbc="T T T"
O 1.162951e+00 -1.537507e-14 2.947028e-15 2.482035e-01 -4.901294e-14 -1.284161e-13
C 1.149219e-03 1.550718e-15 1.539416e-14 4.271573e-01 -1.835144e-14 2.099215e-14
O -1.156307e+00 1.696940e-14 3.223714e-14 -6.753894e-01 6.125112e-14 -9.897143e-15
3
Lattice="1.800000e+01 0.000000e+00 0.000000e+00 0.000000e+00 1.800000e+01 0.000000e+00 0.000000e+00 0.000000e+00 1.800000e+01" Properties=species:S:1:pos:R:3:force:R:3 energy=-4.988881e-04 dipole="1.331430e-02 1.236897e-15 -2.507203e-15" pol="2.589750e+01 -1.541529e-10 6.028818e-10 -1.541529e-10 1.204014e+01 -1.280873e-12 6.028818e-10 -1.280873e-12 1.204014e+01" pbc="T T T"
O 1.164961e+00 -1.314612e-13 -7.969789e-14 3.529343e-01 -3.376972e-14 -7.399587e-14
C 4.816672e-03 -1.490304e-14 8.645516e-15 -5.505723e-01 5.476907e-14 7.990895e-14
O -1.161071e+00 1.004443e-13 1.042041e-13 1.976748e-01 -3.789250e-14 -1.332110e-14
3
Lattice="1.800000e+01 0.000000e+00 0.000000e+00 0.000000e+00 1.800000e+01 0.000000e+00 0.000000e+00 0.000000e+00 1.800000e+01" Properties=species:S:1:pos:R:3:force:R:3 energy=6.066348e-03 dipole="3.466223e-02 -1.297032e-14 -9.449872e-15" pol="2.612736e+01 5.479656e-10 2.106849e-11 5.479656e-10 1.210393e+01 -2.856676e-12 2.106849e-11 -2.856676e-12 1.210393e+01" pbc="T T T"
O 1.168791e+00 -3.496154e-13 -2.880080e-13 2.250490e-01 -4.066945e-14 -1.475428e-13
C 8.197848e-03 -5.943533e-14 -2.166985e-14 -1.388879e+00 4.189972e-13 3.661943e-13
O -1.167440e+00 2.433774e-13 2.511338e-13 1.163900e+00 -4.249702e-13 -2.984538e-13
3
Lattice="1.800000e+01 0.000000e+00 0.000000e+00 0.000000e+00 1.800000e+01 0.000000e+00 0.000000e+00 0.000000e+00 1.800000e+01" Properties=species:S:1:pos:R:3:force:R:3 energy=5.292179e-03 dipole="3.037894e-02 -8.522138e-15 -9.242143e-15" pol="2.572441e+01 1.086752e-10 -7.495268e-10 1.086752e-10 1.199463e+01 -1.456753e-12 -7.495268e-10 -1.456753e-12 1.199463e+01" pbc="T T T"
O 1.159991e+00 -6.237127e-13 -6.050599e-13 1.187326e+00 -4.159503e-13 -4.209434e-13
C 7.470666e-03 -2.019935e-13 -1.330846e-13 -1.287956e+00 4.158281e-13 5.078255e-13
O -1.158093e+00 2.204173e-13 3.432565e-13 1.007103e-01 9.894117e-17 7.316886e-15
3
Lattice="1.800000e+01 0.000000e+00 0.000000e+00 0.000000e+00 1.800000e+01 0.000000e+00 0.000000e+00 0.000000e+00 1.800000e+01" Properties=species:S:1:pos:R:3:force:R:3 energy=1.435135e-03 dipole="-1.554489e-02 2.064322e-14 8.999334e-15" pol="2.610176e+01 -9.114868e-11 -8.450794e-11 -9.114868e-11 1.209508e+01 -8.685957e-13 -8.450794e-11 -8.685957e-13 1.209508e+01" pbc="T T T"
O 1.171265e+00 -6.909062e-13 -7.669188e-13 -7.430273e-01 3.694394e-13 3.759653e-13
C 2.780908e-04 -3.054554e-13 -2.323099e-13 6.246032e-01 -3.747717e-13 -3.439644e-13
O -1.163966e+00 5.923807e-14 2.942419e-13 1.183893e-01 2.126835e-14 -8.486541e-14
3
Lattice="1.800000e+01 0.000000e+00 0.000000e+00 0.000000e+00 1.800000e+01 0.000000e+00 0.000000e+00 0.000000e+00 1.800000e+01" Properties=species:S:1:pos:R:3:force:R:3 energy=8.558474e-04 dipole="7.062530e-03 9.482978e-15 -1.870516e-15" pol="2.574229e+01 -3.516269e-10 2.061597e-10 -3.516269e-10 1.199805e+01 -5.229590e-13 2.061597e-10 -5.229590e-13 1.199805e+01" pbc="T T T"
O 1.161820e+00 -6.997672e-13 -8.383364e-13 6.244380e-01 -8.057758e-14 -2.425001e-13
C 3.831482e-03 -3.635213e-13 -2.864827e-13 -2.984680e-01 -5.163921e-14 1.147201e-13
O -1.157191e+00 -4.462356e-14 2.640284e-13 -3.259499e-01 2.145626e-13 1.342996e-13
3
Lattice="1.800000e+01 0.000000e+00 0.000000e+00 0.000000e+00 1.800000e+01 0.000000e+00 0.000000e+00 0.000000e+00 1.800000e+01" Properties=species:S:1:pos:R:3:force:R:3 energy=8.325098e-03 dipole="4.097485e-02 1.049211e-14 -2.037124e-14" pol="2.613749e+01 1.416538e-10 7.805671e-10 1.416538e-10 1.210765e+01 2.999640e-12 7.805671e-10 2.999640e-12 1.210765e+01" pbc="T T T"
O 1.168606e+00 -7.084886e-13 -1.050053e-12 3.378429e-01 4.389931e-14 -1.255128e-13
C 9.195640e-03 -5.034905e-13 -4.371072e-13 -1.640143e+00 3.951609e-14 8.717113e-13
O -1.168004e+00 -3.233252e-13 1.854750e-13 1.302379e+00 -4.278423e-14 -6.687822e-13
3
Lattice="1.800000e+01 0.000000e+00 0.000000e+00 0.000000e+00 1.800000e+01 0.000000e+00 0.000000e+00 0.000000e+00 1.800000e+01" Properties=species:S:1:pos:R:3:force:R:3 energy=2.914459e-03 dipole="-1.694219e-02 7.618428e-15 1.377895e-14" pol="2.570227e+01 5.562890e-10 -2.462033e-10 5.562890e-10 1.198759e+01 -3.511388e-13 -2.462033e-10 -3.511388e-13 1.198759e+01" pbc="T T T"
O 1.162301e+00 -7.948590e-13 -1.227086e-12 2.260480e-01 8.183806e-14 -4.539710e-14
C 8.646393e-05 -6.525421e-13 -5.831868e-13 7.201825e-01 -2.245700e-13 -4.537713e-13
O -1.154859e+00 -5.328026e-13 5.376638e-14 -9.462769e-01 2.409668e-13 5.734987e-13
3
Lattice="1.800000e+01 0.000000e+00 0.000000e+00 0.000000e+00 1.800000e+01 0.000000e+00 0.000000e+00 0.000000e+00 1.800000e+01" Properties=species:S:1:pos:R:3:force:R:3 energy=3.116094e-03 dipole="6.124687e-03 -1.437905e-14 -3.079401e-15" pol="2.620346e+01 -2.476749e-10 -2.252633e-10 -2.476749e-10 1.212181e+01 -8.470226e-13 -2.252633e-10 -8.470226e-13 1.212181e+01" pbc="T T T"
O 1.172279e+00 -9.444310e-13 -1.384820e-12 -5.612765e-01 -6.789379e-14 3.132704e-13
C 3.697312e-03 -8.241712e-13 -7.512958e-13 -2.425331e-01 2.836767e-13 6.341172e-14
O -1.167549e+00 -6.722700e-13 -1.165751e-13 8.038208e-01 -2.550645e-13 -3.494164e-13
3
Lattice="1.800000e+01 0.000000e+00 0.000000e+00 0.000000e+00 1.800000e+01 0.000000e+00 0.000000e+00 0.000000e+00 1.800000e+01" Properties=species:S:1:pos:R:3:force:R:3 energy=1.820681e-03 dipole="-2.425548e-02 -3.512046e-15 1.164457e-14" pol="2.583340e+01 -5.731849e-10 -6.540737e-10 -5.731849e-10 1.202358e+01 1.654497e-12 -6.540737e-10 1.654497e-12 1.202358e+01" pbc="T T T"
O 1.165691e+00 -1.405223e-12 -1.663623e-12 -2.545144e-01 1.894167e-15 1.074042e-13
C -1.067733e-03 -1.133595e-12 -1.100365e-12 1.012441e+00 -1.895784e-13 -4.943454e-13
O -1.157382e+00 -8.482017e-13 -5.411853e-13 -7.579927e-01 1.032477e-13 3.945701e-13
3
Lattice="1.800000e+01 0.000000e+00 0.000000e+00 0.000000e+00 1.800000e+01 0.000000e+00 0.000000e+00 0.000000e+00 1.800000e+01" Properties=species:S:1:pos:R:3:force:R:3 energy=1.981235e-03 dipole="-1.518249e-02 9.694948e-15 6.048442e-15" pol="2.572921e+01 3.805213e-10 -6.583537e-11 3.805213e-10 1.199480e+01 4.832892e-13 -6.583537e-11 4.832892e-13 1.199480e+01" pbc="T T T"
O 1.162815e+00 -1.789052e-12 -1.974967e-12 1.923985e-01 -2.376309e-14 1.691465e-14
C 3.592313e-04 -1.415908e-12 -1.448884e-12 6.429094e-01 -2.350281e-13 -2.617960e-13
O -1.155577e+00 -1.049636e-12 -9.225055e-13 -8.353502e-01 2.701959e-13 4.459191e-13
3
Lattice="1.800000e+01 0.000000e+00 0.000000e+00 0.000000e+00 1.800000e+01 0.000000e+00 0.000000e+00 0.000000e+00 1.800000e+01" Properties=species:S:1:pos:R:3:force:R:3 energy=6.088747e-03 dipole="3.744412e-02 2.392168e-14 -9.994426e-15" pol="2.608280e+01 -5.895049e-10 -1.895336e-10 -5.895049e-10 1.209236e+01 2.956438e-13 -1.895336e-10 2.956438e-13 1.209236e+01" pbc="T T T"
O 1.167614e+00 -2.374572e-12 -2.783174e-12 3.996041e-01 1.645627e-13 -8.985795e-14
C 8.629739e-03 -2.183136e-12 -2.442696e-12 -1.510041e+00 -1.528206e-13 3.613334e-13
O -1.166587e+00 -2.039953e-12 -2.100238e-12 1.110517e+00 4.102966e-14 -3.432066e-13
3
Lattice="1.800000e+01 0.000000e+00 0.000000e+00 0.000000e+00 1.800000e+01 0.000000e+00 0.000000e+00 0.000000e+00 1.800000e+01" Properties=species:S:1:pos:R:3:force:R:3 energy=-4.736554e-04 dipole="1.235769e-04 -2.566861e-14 -1.409704e-15" pol="2.604981e+01 1.472220e-10 3.882154e-10 1.472220e-10 1.208072e+01 1.582599e-13 3.882154e-10 1.582599e-13 1.208072e+01" pbc="T T T"
O 1.169188e+00 -2.951662e-12 -3.244632e-12 -3.062993e-01 -1.665477e-13 -1.391784e-14
C 2.748665e-03 -2.837654e-12 -3.178711e-12 -4.998841e-03 3.174094e-13 -3.343027e-14
O -1.163744e+00 -2.672835e-12 -3.112695e-12 3.112984e-01 -2.278303e-13 5.146285e-15
3
Lattice="1.800000e+01 0.000000e+00 0.000000e+00 0.000000e+00 1.800000e+01 0.000000e+00 0.000000e+00 0.000000e+00 1.800000e+01" Properties=species:S:1:pos:R:3:force:R:3 energy=7.102016e-03 dipole="-3.829634e-02 -3.857059e-15 -3.535228e-15" pol="2.575490e+01 -7.830947e-10 6.394052e-10 -7.830947e-10 1.200380e+01 -4.569998e-12 6.394052e-10 -4.569998e-12 1.200380e+01" pbc="T T T"
O 1.164674e+00 -3.113392e-12 -3.363859e-12 -3.320693e-01 -9.234319e-14 6.834871e-15
C -3.252858e-03 -2.956168e-12 -3.335561e-12 1.617343e+00 -1.326561e-13 -5.098338e-15
O -1.154724e+00 -2.784207e-12 -3.298039e-12 -1.285372e+00 8.906908e-14 4.765955e-15
3
Lattice="1.800000e+01 0.000000e+00 0.000000e+00 0.000000e+00 1.800000e+01 0.000000e+00 0.000000e+00 0.000000e+00 1.800000e+01" Properties=species:S:1:pos:R:3:force:R:3 energy=8.438862e-03 dipole="-3.423012e-02 -6.830609e-16 3.503835e-15" pol="2.565513e+01 -3.063885e-10 -9.973479e-10 -3.063885e-10 1.197619e+01 -1.727740e-12 -9.973479e-10 -1.727740e-12 1.197619e+01" pbc="T T T"
O 1.162182e+00 -3.453597e-12 -3.608392e-12 -4.060812e-04 -5.817041e-14 -1.160579e-14
C -2.603650e-03 -3.224210e-12 -3.626722e-12 1.465701e+00 -2.075871e-13 -4.065221e-14
O -1.152720e+00 -2.981091e-12 -3.650805e-12 -1.465380e+00 3.034931e-13 -2.852852e-14
3
Lattice="1.800000e+01 0.000000e+00 0.000000e+00 0.000000e+00 1.800000e+01 0.000000e+00 0.000000e+00 0.000000e+00 1.800000e+01" Properties=species:S:1:pos:R:3:force:R:3 energy=4.200945e-03 dipole="1.276511e-02 -7.465587e-15 5.348378e-15" pol="2.564067e+01 -3.939048e-10 -5.185919e-10 -3.939048e-10 1.197069e+01 -3.762982e-12 -5.185919e-10 -3.762982e-12 1.197069e+01" pbc="T T T"
O 1.159168e+00 -3.717717e-12 -3.766609e-12 1.020278e+00 -3.146395e-13 8.980829e-14
C 4.717136e-03 -3.427948e-12 -3.837243e-12 -5.472936e-01 1.821825e-13 -7.741449e-14
O -1.155202e+00 -3.127144e-12 -3.915909e-12 -4.729508e-01 6.624289e-14 6.475572e-14
3
Lattice="1.800000e+01 0.000000e+00 0.000000e+00 0.000000e+00 1.800000e+01 0.000000e+00 0.000000e+00 0.000000e+00 1.800000e+01" Properties=species:S:1:pos:R:3:force:R:3 energy=-1.056558e-03 dipole="-5.798338e-03 1.038706e-14 2.195716e-15" pol="2.597470e+01 -3.002404e-10 1.287829e-11 -3.002404e-10 1.206064e+01 -1.207938e-13 1.287829e-11 -1.207938e-13 1.206064e+01" pbc="T T T"
O 1.167841e+00 -4.645299e-12 -4.204576e-12 -2.395062e-01 1.579872e-13 -7.805507e-14
C 1.817825e-03 -4.297995e-12 -4.613157e-12 2.371409e-01 -1.815623e-13 1.158063e-14
O -1.161699e+00 -3.966519e-12 -5.033181e-12 2.349942e-03 1.693686e-14 7.764710e-14
3
Lattice="1.800000e+01 0.000000e+00 0.000000e+00 0.000000e+00 1.800000e+01 0.000000e+00 0.000000e+00 0.000000e+00 1.800000e+01" Properties=species:S:1:pos:R:3:force:R:3 energy=4.157125e-03 dipole="1.297048e-02 4.246745e-15 4.574225e-15" pol="2.564270e+01 2.151692e-10 -3.689156e-10 2.151692e-10 1.197125e+01 2.293531e-13 -3.689156e-10 2.293531e-13 1.197125e+01" pbc="T T T"
O 1.159201e+00 -4.889993e-12 -4.367778e-12 1.019327e+00 -1.832120e-13 3.978188e-13
C 4.748713e-03 -4.605829e-12 -4.846125e-12 -5.559424e-01 -9.781870e-15 -1.814198e-13
O -1.155260e+00 -4.338681e-12 -5.322356e-12 -4.633500e-01 1.924914e-13 -2.162180e-13
3
Lattice="1.800000e+01 0.000000e+00 0.000000e+00 0.000000e+00 1.800000e+01 0.000000e+00 0.000000e+00 0.000000e+00 1.800000e+01" Properties=species:S:1:pos:R:3:force:R:3 energy=2.987770e-03 dipole="8.741788e-04 -9.868291e-15 -7.234727e-15" pol="2.620431e+01 -4.621290e-10 -1.775813e-10 -4.621290e-10 1.212200e+01 1.307141e-12 -1.775813e-10 1.307141e-12 1.212200e+01" pbc="T T T"
O 1.172613e+00 -5.536992e-12 -4.721094e-12 -6.682038e-01 3.029721e-14 -3.898396e-13
C 2.866889e-03 -5.415445e-12 -5.334354e-12 -3.456268e-02 1.733877e-13 6.334721e-15
O -1.167259e+00 -5.268464e-12 -5.945632e-12 7.027681e-01 -1.929204e-13 3.222435e-13
3
Lattice="1.800000e+01 0.000000e+00 0.000000e+00 0.000000e+00 1.800000e+01 0.000000e+00 0.000000e+00 0.000000e+00 1.800000e+01" Properties=species:S:1:pos:R:3:force:R:3 energy=1.496911e-03 dipole="-2.521372e-02 -1.238962e-15 -1.832888e-14" pol="2.594443e+01 -5.646508e-12 -3.074343e-10 -5.646508e-12 1.205362e+01 -2.937505e-14 -3.074343e-10 -2.937505e-14 1.205362e+01" pbc="T T T"
O 1.168259e+00 -5.744702e-12 -4.804074e-12 -5.480837e-01 7.528132e-14 -3.732242e-13
C -1.229584e-03 -5.620159e-12 -5.454863e-12 1.036158e+00 -9.269383e-14 7.225949e-13
O -1.159828e+00 -5.490223e-12 -6.088989e-12 -4.881399e-01 4.690820e-14 -3.234190e-13
3
Lattice="1.800000e+01 0.000000e+00 0.000000e+00 0.000000e+00 1.800000e+01 0.000000e+00 0.000000e+00 0.000000e+00 1.800000e+01" Properties=species:S:1:pos:R:3:force:R:3 energy=7.870510e-03 dipole="-4.063326e-02 1.534831e-14 -2.208233e-14" pol="2.612164e+01 -6.745047e-10 -6.941036e-10 -6.745047e-10 1.210332e+01 5.987978e-12 -6.941036e-10 5.987978e-12 1.210332e+01" pbc="T T T"
O 1.173088e+00 -6.547360e-12 -5.091707e-12 -1.259443e+00 2.726460e-13 -7.616836e-13
C -3.680986e-03 -6.322077e-12 -5.789439e-12 1.630062e+00 -4.474684e-13 9.557748e-13
O -1.162817e+00 -6.117998e-12 -6.480346e-12 -3.706994e-01 1.228767e-13 -2.411250e-13
3
Lattice="1.800000e+01 0.000000e+00 0.000000e+00 0.000000e+00 1.800000e+01 0.000000e+00 0.000000e+00 0.000000e+00 1.800000e+01" Properties=species:S:1:pos:R:3:force:R:3 energy=4.579552e-03 dipole="2.907466e-02 -1.464612e-14 2.384090e-14" pol="2.573951e+01 8.911272e-10 1.727086e-10 8.911272e-10 1.199860e+01 3.038153e-12 1.727086e-10 3.038153e-12 1.199860e+01" pbc="T T T"
O 1.160415e+00 -6.751922e-12 -5.172415e-12 1.116840e+00 -3.315723e-13 5.894091e-13
C 7.268528e-03 -6.510317e-12 -5.848899e-12 -1.229974e+00 3.587663e-13 -7.696272e-13
O -1.158366e+00 -6.247027e-12 -6.545129e-12 1.132109e-01 -2.065106e-16 1.047182e-13
3
Lattice="1.800000e+01 0.000000e+00 0.000000e+00 0.000000e+00 1.800000e+01 0.000000e+00 0.000000e+00 0.000000e+00 1.800000e+01" Properties=species:S:1:pos:R:3:force:R:3 energy=6.131683e-03 dipole="2.570916e-02 -1.182076e-14 9.491234e-15" pol="2.621646e+01 -6.167168e-10 1.300049e-09 -6.167168e-10 1.212664e+01 2.025960e-12 1.300049e-09 2.025960e-12 1.212664e+01" pbc="T T T"
O 1.171357e+00 -7.371881e-12 -5.391259e-12 -1.897582e-01 5.315408e-14 -2.960846e-13
C 6.795576e-03 -7.021981e-12 -6.054022e-12 -1.016811e+00 3.357267e-13 -4.596123e-13
O -1.168951e+00 -6.659972e-12 -6.712503e-12 1.206613e+00 -3.952911e-13 6.152575e-13
3
Lattice="1.800000e+01 0.000000e+00 0.000000e+00 0.000000e+00 1.800000e+01 0.000000e+00 0.000000e+00 0.000000e+00 1.800000e+01" Properties=species:S:1:pos:R:3:force:R:3 energy=-3.694353e-04 dipole="1.105850e-02 -1.747428e-14 6.932587e-15" pol="2.601373e+01 -2.184546e-11 3.478008e-10 -2.184546e-11 1.207127e+01 -9.014604e-13 3.478008e-10 -9.014604e-13 1.207127e+01" pbc="T T T"
O 1.167720e+00 -7.740183e-12 -5.547102e-12 8.655339e-03 -4.930369e-15 5.963143e-14
C 4.468290e-03 -7.362265e-12 -6.166937e-12 -4.498380e-01 2.331561e-13 -2.549882e-13
O -1.163568e+00 -6.964268e-12 -6.793647e-12 4.412107e-01 -2.009061e-13 2.196080e-13
3
Lattice="1.800000e+01 0.000000e+00 0.000000e+00 0.000000e+00 1.800000e+01 0.000000e+00 0.000000e+00 0.000000e+00 1.800000e+01" Properties=species:S:1:pos:R:3:force:R:3 energy=1.011096e-02 dipole="3.795223e-02 -1.725917e-14 1.596990e-14" pol="2.623885e+01 -9.503109e-10 -3.299100e-11 -9.503109e-10 1.213437e+01 1.668895e-12 -3.299100e-11 1.668895e-12 1.213437e+01" pbc="T T T"
O 1.171065e+00 -8.020142e-12 -5.661853e-12 1.640008e-02 -7.387110e-14 -6.213626e-14
C 8.735502e-03 -7.629953e-12 -6.254910e-12 -1.497328e+00 5.479859e-13 -6.711581e-13
O -1.170116e+00 -7.225001e-12 -6.848484e-12 1.480987e+00 -5.065135e-13 6.333507e-13
3
Lattice="1.800000e+01 0.000000e+00 0.000000e+00 0.000000e+00 1.800000e+01 0.000000e+00 0.000000e+00 0.000000e+00 1.800000e+01" Properties=species:S:1:pos:R:3:force:R:3 energy=2.104891e-03 dipole="2.361610e-02 -1.215661e-14 2.497461e-14" pol="2.580114e+01 -8.620021e-11 -1.272063e-10 -8.620021e-11 1.201481e+01 -1.225402e-13 -1.272063e-10 -1.225402e-13 1.201481e+01" pbc="T T T"
O 1.162150e+00 -8.419909e-12 -5.835982e-12 8.294239e-01 -2.955460e-13 4.585024e-13
C 6.422333e-03 -8.051800e-12 -6.357580e-12 -9.902139e-01 3.771519e-13 -6.284554e-13
O -1.159466e+00 -7.668365e-12 -6.908650e-12 1.608550e-01 -9.482605e-14 8.431315e-14
3
Lattice="1.800000e+01 0.000000e+00 0.000000e+00 0.000000e+00 1.800000e+01 0.000000e+00 0.000000e+00 0.000000e+00 1.800000e+01" Properties=species:S:1:pos:R:3:force:R:3 energy=-8.196584e-04 dipole="-8.410026e-03 -4.480267e-15 9.927513e-15" pol="2.586710e+01 -9.452289e-11 6.605137e-11 -9.452289e-11 1.203177e+01 2.953440e-12 6.605137e-11 2.953440e-12 1.203177e+01" pbc="T T T"
O 1.165559e+00 -8.703082e-12 -5.941461e-12 -2.204105e-02 4.061311e-15 1.014543e-13
C 1.411463e-03 -8.373756e-12 -6.436964e-12 3.492288e-01 -7.420128e-14 3.551492e-14
O -1.159112e+00 -8.034961e-12 -6.955227e-12 -3.272114e-01 4.503955e-14 -1.245262e-13
3
Lattice="1.800000e+01 0.000000e+00 0.000000e+00 0.000000e+00 1.800000e+01 0.000000e+00 0.000000e+00 0.000000e+00 1.800000e+01" Properties=species:S:1:pos:R:3:force:R:3 energy=8.464632e-03 dipole="-4.221976e-02 3.199925e-15 -2.907646e-15" pol="2.575914e+01 9.174207e-10 -1.901164e-10 9.174207e-10 1.200547e+01 2.300135e-12 -1.901164e-10 2.300135e-12 1.200547e+01" pbc="T T T"
O 1.164979e+00 -8.954064e-12 -6.033878e-12 -4.180056e-01 3.741241e-15 -1.033204e-13
C -3.866572e-03 -8.685220e-12 -6.501573e-12 1.782400e+00 -3.382537e-13 6.232063e-13
O -1.154570e+00 -8.406708e-12 -6.985909e-12 -1.364499e+00 2.899032e-13 -4.832785e-13
3
Lattice="1.800000e+01 0.000000e+00 0.000000e+00 0.000000e+00 1.800000e+01 0.000000e+00 0.000000e+00 0.000000e+00 1.800000e+01" Properties=species:S:1:pos:R:3:force:R:3 energy=4.421566e-03 dipole="1.713987e-02 -1.657400e-16 -2.056169e-15" pol="2.621094e+01 7.839098e-10 1.835982e-10 7.839098e-10 1.212436e+01 -5.004236e-13 1.835982e-10 -5.004236e-13 1.212436e+01" pbc="T T T"
O 1.171772e+00 -9.397671e-12 -6.184092e-12 -3.550244e-01 5.723002e-14 -1.317489e-13
C 5.439905e-03 -9.231171e-12 -6.607925e-12 -6.781955e-01 5.145458e-14 -1.102442e-13
O -1.168349e+00 -9.067096e-12 -7.019625e-12 1.033250e+00 -1.415156e-13 2.738413e-13
3
Lattice="1.800000e+01 0.000000e+00 0.000000e+00 0.000000e+00 1.800000e+01 0.000000e+00 0.000000e+00 0.000000e+00 1.800000e+01" Properties=species:S:1:pos:R:3:force:R:3 energy=1.858087e-03 dipole="4.563719e-03 6.589633e-15 -5.961210e-15" pol="2.616161e+01 -3.214641e-10 2.047147e-10 -3.214641e-10 1.211062e+01 5.143886e-13 2.047147e-10 5.143886e-13 1.211062e+01" pbc="T T T"
O 1.171436e+00 -1.116694e-11 -6.729004e-12 -4.910742e-01 9.160639e-14 -5.474332e-14
C 3.449982e-03 -1.102833e-11 -6.816739e-12 -1.817831e-01 -5.290281e-14 1.835913e-13
O -1.166518e+00 -1.089950e-11 -6.887356e-12 6.728665e-01 -3.003002e-14 -7.351766e-14
3
Lattice="1.800000e+01 0.000000e+00 0.000000e+00 0.000000e+00 1.800000e+01 0.000000e+00 0.000000e+00 0.000000e+00 1.800000e+01" Properties=species:S:1:pos:R:3:force:R:3 energy=8.600750e-04 dipole="2.139575e-02 5.004908e-15 -1.679852e-14" pol="2.587620e+01 3.816990e-10 -2.725637e-10 3.816990e-10 1.203491e+01 -2.470448e-13 -2.725637e-10 -2.470448e-13 1.203491e+01" pbc="T T T"
O 1.163984e+00 -1.150495e-11 -6.766461e-12 5.826472e-01 -1.061794e-13 -1.254009e-13
C 6.081983e-03 -1.132365e-11 -6.839526e-12 -8.876183e-01 -2.164778e-14 1.959712e-13
O -1.161044e+00 -1.115787e-11 -6.876869e-12 3.050295e-01 5.658185e-14 -1.982465e-13
3
Lattice="1.800000e+01 0.000000e+00 0.000000e+00 0.000000e+00 1.800000e+01 0.000000e+00 0.000000e+00 0.000000e+00 1.800000e+01" Properties=species:S:1:pos:R:3:force:R:3 energy=4.127005e-03 dipole="1.811033e-02 -1.181364e-14 1.706904e-14" pol="2.619653e+01 -6.593943e-11 2.271941e-10 -6.593943e-11 1.212058e+01 9.767332e-13 2.271941e-10 9.767332e-13 1.212058e+01" pbc="T T T"
O 1.171389e+00 -1.180066e-11 -6.792748e-12 -2.995806e-01 -5.358100e-14 9.426816e-14
C 5.591763e-03 -1.159006e-11 -6.824728e-12 -7.180766e-01 2.355719e-13 -2.387673e-13
O -1.168081e+00 -1.135878e-11 -6.887412e-12 1.017691e+00 -2.149732e-13 1.203636e-13
3
Lattice="1.800000e+01 0.000000e+00 0.000000e+00 0.000000e+00 1.800000e+01 0.000000e+00 0.000000e+00 0.000000e+00 1.800000e+01" Properties=species:S:1:pos:R:3:force:R:3 energy=4.337847e-03 dipole="1.802747e-02 -6.183625e-15 9.215871e-15" pol="2.565955e+01 1.461914e-10 -3.221369e-10 1.461914e-10 1.197607e+01 -3.805397e-14 -3.221369e-10 -3.805397e-14 1.197607e+01" pbc="T T T"
O 1.159280e+00 -1.210876e-11 -6.799045e-12 1.085738e+00 -3.099109e-13 9.010998e-14
C 5.537997e-03 -1.183956e-11 -6.837950e-12 -7.709578e-01 2.022366e-13 -1.588220e-13
O -1.155930e+00 -1.156307e-11 -6.890488e-12 -3.147319e-01 7.283835e-14 -1.977405e-14
3
Lattice="1.800000e+01 0.000000e+00 0.000000e+00 0.000000e+00 1.800000e+01 0.000000e+00 0.000000e+00 0.000000e+00 1.800000e+01" Properties=species:S:1:pos:R:3:force:R:3 energy=3.199902e-03 dipole="-1.058415e-02 -2.724442e-15 1.347997e-14" pol="2.566413e+01 2.354992e-10 1.725171e-10 2.354992e-10 1.197697e+01 7.622066e-13 1.725171e-10 7.622066e-13 1.197697e+01" pbc="T T T"
O 1.161071e+00 -1.258553e-11 -6.797045e-12 4.567598e-01 -1.399580e-13 1.650897e-13
C 1.079413e-03 -1.224750e-11 -6.839377e-12 4.522719e-01 -8.409427e-14 -1.586683e-13
O -1.154375e+00 -1.189560e-11 -6.907451e-12 -9.090604e-01 1.978628e-13 1.095757e-13
3
Lattice="1.800000e+01 0.000000e+00 0.000000e+00 0.000000e+00 1.800000e+01 0.000000e+00 0.000000e+00 0.000000e+00 1.800000e+01" Properties=species:S:1:pos:R:3:force:R:3 energy=8.235475e-03 dipole="4.237827e-02 -8.479891e-15 -7.390347e-15" pol="2.577357e+01 2.344439e-10 9.492191e-11 2.344439e-10 1.200941e+01 2.745540e-12 9.492191e-11 2.745540e-12 1.200941e+01" pbc="T T T"
O 1.160343e+00 -1.407160e-11 -6.555093e-12 1.328773e+00 -4.979779e-13 1.582308e-13
C 9.351738e-03 -1.363861e-11 -6.807954e-12 -1.785489e+00 5.703261e-13 -1.209380e-13
O -1.159858e+00 -1.320935e-11 -7.031528e-12 4.568217e-01 -1.380427e-13 2.163602e-14
3
Lattice="1.800000e+01 0.000000e+00 0.000000e+00 0.000000e+00 1.800000e+01 0.000000e+00 0.000000e+00 0.000000e+00 1.800000e+01" Properties=species:S:1:pos:R:3:force:R:3 energy=1.264944e-03 dipole="2.267973e-02 -2.664387e-15 -2.906087e-15" pol="2.585578e+01 -2.027768e-12 -4.194019e-10 -2.027768e-12 1.202950e+01 -2.492404e-12 -4.194019e-10 -2.492404e-12 1.202950e+01" pbc="T T T"
O 1.163444e+00 -1.460262e-11 -6.396423e-12 6.642926e-01 -1.408372e-13 1.205625e-13
C 6.281282e-03 -1.418409e-11 -6.755353e-12 -9.436361e-01 1.845769e-13 -9.702464e-14
O -1.160653e+00 -1.377564e-11 -7.098935e-12 2.794056e-01 -3.151289e-14 5.630923e-15
3
Lattice="1.800000e+01 0.000000e+00 0.000000e+00 0.000000e+00 1.800000e+01 0.000000e+00 0.000000e+00 0.000000e+00 1.800000e+01" Properties=species:S:1:pos:R:3:force:R:3 energy=3.443488e-03 dipole="-4.923719e-03 -2.707428e-15 4.856093e-16" pol="2.564387e+01 1.773106e-10 -2.060991e-10 1.773106e-10 1.197135e+01 1.263836e-12 -2.060991e-10 1.263836e-12 1.197135e+01" pbc="T T T"
O 1.160283e+00 -1.556670e-11 -6.151236e-12 6.292278e-01 -1.602163e-13 3.590645e-13
C 1.961905e-03 -1.529581e-11 -6.630884e-12 2.109748e-01 -2.576452e-14 2.161788e-14
O -1.154250e+00 -1.501903e-11 -7.114870e-12 -8.402159e-01 1.855961e-13 -3.261211e-13
3
Lattice="1.800000e+01 0.000000e+00 0.000000e+00 0.000000e+00 1.800000e+01 0.000000e+00 0.000000e+00 0.000000e+00 1.800000e+01" Properties=species:S:1:pos:R:3:force:R:3 energy=2.554832e-03 dipole="-3.304077e-03 -1.007085e-14 2.524509e-14" pol="2.618839e+01 2.367997e-10 7.687352e-10 2.367997e-10 1.211775e+01 3.224960e-12 7.687352e-10 3.224960e-12 1.211775e+01" pbc="T T T"
O 1.172503e+00 -1.585242e-11 -6.075926e-12 -7.124793e-01 7.572443e-14 -8.858798e-14
C 2.206560e-03 -1.565131e-11 -6.568310e-12 1.311040e-01 1.501399e-13 -3.453393e-13
O -1.166653e+00 -1.542444e-11 -7.116339e-12 5.813690e-01 -2.595402e-13 4.775054e-13
3
Lattice="1.800000e+01 0.000000e+00 0.000000e+00 0.000000e+00 1.800000e+01 0.000000e+00 0.000000e+00 0.000000e+00 1.800000e+01" Properties=species:S:1:pos:R:3:force:R:3 energy=4.500494e-03 dipole="1.304542e-02 1.755563e-15 8.437017e-15" pol="2.563296e+01 1.897536e-10 5.262000e-10 1.897536e-10 1.196861e+01 6.366395e-13 5.262000e-10 6.366395e-13 1.196861e+01" pbc="T T T"
O 1.158975e+00 -1.694305e-11 -5.764474e-12 1.047356e+00 -5.766973e-14 5.066234e-13
C 4.760098e-03 -1.686102e-11 -6.385971e-12 -5.599216e-01 -4.362526e-14 -3.067497e-13
O -1.155042e+00 -1.678387e-11 -7.012365e-12 -4.874002e-01 5.090746e-14 -2.762894e-13
3
Lattice="1.800000e+01 0.000000e+00 0.000000e+00 0.000000e+00 1.800000e+01 0.000000e+00 0.000000e+00 0.000000e+00 1.800000e+01" Properties=species:S:1:pos:R:3:force:R:3 energy=9.225977e-03 dipole="4.322903e-02 -2.218509e-15 1.417532e-15" pol="2.614160e+01 -1.511327e-10 -5.772455e-10 -1.511327e-10 1.210914e+01 7.460896e-13 -5.772455e-10 7.460896e-13 1.210914e+01" pbc="T T T"
O 1.168550e+00 -1.928769e-11 -5.172289e-12 3.773063e-01 -2.477172e-14 1.781080e-14
C 9.552076e-03 -1.911330e-11 -5.893751e-12 -1.729652e+00 1.255679e-13 -6.262497e-13
O -1.168215e+00 -1.895041e-11 -6.575769e-12 1.352427e+00 -5.778749e-14 5.643846e-13
3
Lattice="1.800000e+01 0.000000e+00 0.000000e+00 0.000000e+00 1.800000e+01 0.000000e+00 0.000000e+00 0.000000e+00 1.800000e+01" Properties=species:S:1:pos:R:3:force:R:3 energy=1.452097e-03 dipole="-2.711003e-03 -1.276934e-14 -8.213927e-16" pol="2.570867e+01 -3.916036e-10 7.152834e-11 -3.916036e-10 1.198888e+01 5.853955e-12 7.152834e-11 5.853955e-12 1.198888e+01" pbc="T T T"
O 1.161631e+00 -2.025154e-11 -5.009193e-12 5.049415e-01 -2.162637e-13 2.428422e-13
C 2.305733e-03 -1.995867e-11 -5.663213e-12 1.150953e-01 4.653538e-14 1.440046e-13
O -1.155856e+00 -1.965295e-11 -6.309330e-12 -6.200445e-01 9.070793e-14 -4.029061e-13
3
Lattice="1.800000e+01 0.000000e+00 0.000000e+00 0.000000e+00 1.800000e+01 0.000000e+00 0.000000e+00 0.000000e+00 1.800000e+01" Properties=species:S:1:pos:R:3:force:R:3 energy=5.345270e-03 dipole="2.029839e-02 -7.478718e-15 3.423910e-14" pol="2.622442e+01 8.867668e-10 -3.309544e-10 8.867668e-10 1.212821e+01 4.086892e-12 -3.309544e-10 4.086892e-12 1.212821e+01" pbc="T T T"
O 1.171876e+00 -2.118074e-11 -4.862332e-12 -3.226073e-01 1.585409e-13 3.721996e-14
C 5.940559e-03 -2.078238e-11 -5.414033e-12 -8.017322e-01 2.622342e-13 -7.848250e-13
O -1.168829e+00 -2.037690e-11 -6.023800e-12 1.124374e+00 -4.133489e-13 7.612788e-13
3
Lattice="1.800000e+01 0.000000e+00 0.000000e+00 0.000000e+00 1.800000e+01 0.000000e+00 0.000000e+00 0.000000e+00 1.800000e+01" Properties=species:S:1:pos:R:3:force:R:3 energy=4.888050e-03 dipole="3.705915e-02 -2.061829e-14 3.987557e-14" pol="2.589019e+01 2.760176e-10 2.739756e-10 2.760176e-10 1.204032e+01 1.035468e-12 2.739756e-10 1.035468e-12 1.204032e+01" pbc="T T T"
O 1.163314e+00 -2.179203e-11 -4.741399e-12 8.933269e-01 -4.367525e-13 5.515209e-13
C 8.538605e-03 -2.136373e-11 -5.238314e-12 -1.535511e+00 6.602236e-13 -9.580788e-13
O -1.162219e+00 -2.091513e-11 -5.783889e-12 6.422788e-01 -2.841215e-13 3.825169e-13
3
Lattice="1.800000e+01 0.000000e+00 0.000000e+00 0.000000e+00 1.800000e+01 0.000000e+00 0.000000e+00 0.000000e+00 1.800000e+01" Properties=species:S:1:pos:R:3:force:R:3 energy=8.018582e-03 dipole="3.206896e-02 -2.084402e-14 -1.163632e-14" pol="2.622745e+01 -6.751942e-10 4.356337e-10 -6.751942e-10 1.213040e+01 -5.216750e-12 4.356337e-10 -5.216750e-12 1.213040e+01" pbc="T T T"
O 1.171194e+00 -2.250511e-11 -4.576834e-12 -8.191294e-02 6.834390e-14 -2.714712e-13
C 7.802975e-03 -2.204389e-11 -5.048225e-12 -1.266791e+00 5.577666e-13 -1.158272e-13
O -1.169545e+00 -2.156632e-11 -5.478177e-12 1.348756e+00 -5.874244e-13 3.540097e-13
3
Lattice="1.800000e+01 0.000000e+00 0.000000e+00 0.000000e+00 1.800000e+01 0.000000e+00 0.000000e+00 0.000000e+00 1.800000e+01" Properties=species:S:1:pos:R:3:force:R:3 energy=8.004703e-03 dipole="4.533466e-02 -2.399053e-14 -9.404628e-15" pol="2.600285e+01 2.423032e-10 2.415454e-10 2.423032e-10 1.207205e+01 -5.256233e-12 2.415454e-10 -5.256233e-12 1.207205e+01" pbc="T T T"
O 1.165309e+00 -2.309845e-11 -4.466228e-12 7.834147e-01 -3.256674e-13 -9.226059e-15
C 9.857384e-03 -2.262266e-11 -4.850367e-12 -1.849903e+00 7.744943e-13 -2.376155e-13
O -1.165203e+00 -2.213703e-11 -5.196497e-12 1.066590e+00 -3.835198e-13 8.914371e-14
3
Lattice="1.800000e+01 0.000000e+00 0.000000e+00 0.000000e+00 1.800000e+01 0.000000e+00 0.000000e+00 0.000000e+00 1.800000e+01" Properties=species:S:1:pos:R:3:force:R:3 energy=6.036731e-04 dipole="-9.469338e-03 -6.607484e-15 -8.318859e-15" pol="2.576370e+01 3.226742e-10 -3.245928e-10 3.226742e-10 1.200390e+01 -4.662708e-13 -3.245928e-10 -4.662708e-13 1.200390e+01" pbc="T T T"
O 1.163274e+00 -2.400032e-11 -4.320762e-12 2.206778e-01 -1.535147e-13 4.312420e-14
C 1.249289e-03 -2.352724e-11 -4.526847e-12 3.989937e-01 -1.211560e-14 1.477609e-13
O -1.156705e+00 -2.303438e-11 -4.722335e-12 -6.196984e-01 2.597902e-13 -1.864853e-13
3
Lattice="1.800000e+01 0.000000e+00 0.000000e+00 0.000000e+00 1.800000e+01 0.000000e+00 0.000000e+00 0.000000e+00 1.800000e+01" Properties=species:S:1:pos:R:3:force:R:3 energy=5.892776e-03 dipole="3.443551e-02 -1.632769e-14 1.415677e-14" pol="2.575106e+01 -2.373522e-10 3.925827e-11 -2.373522e-10 1.200229e+01 3.175278e-12 3.925827e-11 3.175278e-12 1.200229e+01" pbc="T T T"
O 1.160340e+00 -2.554334e-11 -3.952912e-12 1.207310e+00 -4.927704e-13 8.907637e-14
C 8.107079e-03 -2.507832e-11 -3.948222e-12 -1.454770e+00 5.820310e-13 -1.746430e-13
O -1.158920e+00 -2.460369e-11 -3.972469e-12 2.475496e-01 -6.844938e-14 3.818857e-14
3
Lattice="1.800000e+01 0.000000e+00 0.000000e+00 0.000000e+00 1.800000e+01 0.000000e+00 0.000000e+00 0.000000e+00 1.800000e+01" Properties=species:S:1:pos:R:3:force:R:3 energy=6.274584e-03 dipole="-2.624692e-02 6.619183e-15 1.141250e-14" pol="2.565228e+01 4.865055e-10 1.551600e-10 4.865055e-10 1.197466e+01 -3.054134e-12 1.551600e-10 -3.054134e-12 1.197466e+01" pbc="T T T"
O 1.161680e+00 -2.719381e-11 -3.496169e-12 1.664165e-01 3.755745e-14 8.166033e-14
C -1.359932e-03 -2.679526e-11 -3.319835e-12 1.123921e+00 -3.699167e-13 -3.087153e-13
O -1.153153e+00 -2.639289e-11 -3.166420e-12 -1.290406e+00 4.338180e-13 2.377920e-13
3
Lattice="1.800000e+01 0.000000e+00 0.000000e+00 0.000000e+00 1.800000e+01 0.000000e+00 0.000000e+00 0.000000e+00 1.800000e+01" Properties=species:S:1:pos:R:3:force:R:3 energy=-6.128779e-05 dipole="-1.294487e-02 6.225341e-15 -2.855816e-15" pol="2.583135e+01 -2.077596e-10 -3.049065e-10 -2.077596e-10 1.202230e+01 4.856637e-13 -3.049065e-10 4.856637e-13 1.202230e+01" pbc="T T T"
O 1.165009e+00 -2.777626e-11 -3.368334e-12 -2.345374e-02 -4.157185e-14 -4.383343e-16
C 7.027608e-04 -2.744810e-11 -3.110341e-12 5.403014e-01 -5.143058e-15 -1.212525e-13
O -1.158029e+00 -2.710231e-11 -2.849293e-12 -5.168842e-01 1.242032e-13 9.427527e-14
3
Lattice="1.800000e+01 0.000000e+00 0.000000e+00 0.000000e+00 1.800000e+01 0.000000e+00 0.000000e+00 0.000000e+00 1.800000e+01" Properties=species:S:1:pos:R:3:force:R:3 energy=1.039334e-04 dipole="1.248341e-02 7.366164e-16 -2.606005e-15" pol="2.604248e+01 -7.518035e-10 6.615394e-10 -7.518035e-10 1.207904e+01 -1.031398e-12 6.615394e-10 -1.031398e-12 1.207904e+01" pbc="T T T"
O 1.168280e+00 -2.807248e-11 -3.310209e-12 -3.393640e-02 1.364266e-13 3.511159e-14
C 4.694060e-03 -2.776372e-11 -3.000138e-12 -5.057625e-01 -6.191118e-14 3.169799e-14
O -1.164298e+00 -2.747369e-11 -2.698531e-12 5.397294e-01 -8.664025e-14 -1.189373e-13
3
Lattice="1.800000e+01 0.000000e+00 0.000000e+00 0.000000e+00 1.800000e+01 0.000000e+00 0.000000e+00 0.000000e+00 1.800000e+01" Properties=species:S:1:pos:R:3:force:R:3 energy=6.724187e-04 dipole="1.662995e-02 -7.160887e-15 -3.843841e-15" pol="2.581191e+01 -6.180374e-11 -1.638505e-10 -6.180374e-11 1.201724e+01 2.488909e-12 -1.638505e-10 2.488909e-12 1.201724e+01" pbc="T T T"
O 1.162823e+00 -2.993072e-11 -2.820785e-12 6.476305e-01 -8.630288e-14 -2.580364e-13
C 5.330682e-03 -2.985269e-11 -2.371919e-12 -6.960779e-01 9.487452e-14 1.754593e-13
O -1.159319e+00 -2.976392e-11 -1.925645e-12 4.849406e-02 2.037332e-16 -7.176814e-15
3
Lattice="1.800000e+01 0.000000e+00 0.000000e+00 0.000000e+00 1.800000e+01 0.000000e+00 0.000000e+00 0.000000e+00 1.800000e+01" Properties=species:S:1:pos:R:3:force:R:3 energy=3.679561e-03 dipole="-1.526012e-02 1.141286e-14 1.336820e-14" pol="2.619491e+01 -7.678594e-11 9.550580e-12 -7.678594e-11 1.211995e+01 9.797963e-13 9.550580e-12 9.797963e-13 1.211995e+01" pbc="T T T"
O 1.173341e+00 -3.096974e-11 -2.530944e-12 -9.597161e-01 1.155619e-13 4.508005e-13
C 3.163270e-04 -3.089947e-11 -2.076495e-12 6.051507e-01 -2.109043e-13 -3.545507e-13
O -1.166072e+00 -3.084986e-11 -1.637761e-12 3.545370e-01 1.125705e-14 -1.133081e-13
3
Lattice="1.800000e+01 0.000000e+00 0.000000e+00 0.000000e+00 1.800000e+01 0.000000e+00 0.000000e+00 0.000000e+00 1.800000e+01" Properties=species:S:1:pos:R:3:force:R:3 energy=3.689471e-03 dipole="1.982568e-02 -3.648953e-15 -1.691013e-14" pol="2.569188e+01 7.025533e-10 3.023352e-10 7.025533e-10 1.198495e+01 -3.314562e-12 3.023352e-10 -3.314562e-12 1.198495e+01" pbc="T T T"
O 1.159905e+00 -3.145134e-11 -2.377019e-12 1.038224e+00 -1.149262e-13 -3.330605e-13
C 5.820657e-03 -3.138936e-11 -1.961687e-12 -8.440553e-01 9.214922e-14 3.975719e-13
O -1.156768e+00 -3.132153e-11 -1.526343e-12 -1.941147e-01 5.650946e-14 4.123410e-14
3
Lattice="1.800000e+01 0.000000e+00 0.000000e+00 0.000000e+00 1.800000e+01 0.000000e+00 0.000000e+00 0.000000e+00 1.800000e+01" Properties=species:S:1:pos:R:3:force:R:3 energy=3.048356e-03 dipole="-1.662136e-02 -8.950535e-15 -5.624878e-15" pol="2.616577e+01 1.670909e-10 -3.919241e-10 1.670909e-10 1.211226e+01 -2.254454e-12 -3.919241e-10 -2.254454e-12 1.211226e+01" pbc="T T T"
O 1.172765e+00 -3.194665e-11 -2.231170e-12 -9.166439e-01 -1.866937e-14 2.235078e-13
C 1.037652e-04 -3.187110e-11 -1.836418e-12 6.618744e-01 5.007231e-14 -5.047684e-14
O -1.165335e+00 -3.177580e-11 -1.424565e-12 2.547366e-01 6.002862e-15 -1.529387e-13
3
Lattice="1.800000e+01 0.000000e+00 0.000000e+00 0.000000e+00 1.800000e+01 0.000000e+00 0.000000e+00 0.000000e+00 1.800000e+01" Properties=species:S:1:pos:R:3:force:R:3 energy=4.575681e-04 dipole="-1.968724e-02 6.333418e-15 5.856605e-15" pol="2.589332e+01 4.965679e-10 9.245871e-11 4.965679e-10 1.203940e+01 -7.263109e-13 9.245871e-11 -7.263109e-13 1.203940e+01" pbc="T T T"
O 1.166795e+00 -3.535962e-11 -1.167032e-12 -3.139697e-01 1.647695e-13 -1.530927e-14
C -3.577108e-04 -3.497369e-11 -1.077664e-12 8.147266e-01 -3.083904e-13 -9.452202e-14
O -1.159019e+00 -3.459316e-11 -9.945595e-13 -5.008106e-01 1.612949e-13 7.007012e-14
3
Lattice="1.800000e+01 0.000000e+00 0.000000e+00 0.000000e+00 1.800000e+01 0.000000e+00 0.000000e+00 0.000000e+00 1.800000e+01" Properties=species:S:1:pos:R:3:force:R:3 energy=3.155909e-03 dipole="-1.496043e-02 7.986837e-15 6.143570e-15" pol="2.617794e+01 1.275756e-10 1.400648e-11 1.275756e-10 1.211540e+01 -2.060827e-12 1.400648e-11 -2.060827e-12 1.211540e+01" pbc="T T T"
O 1.172943e+00 -3.584555e-11 -1.044692e-12 -9.137972e-01 4.002490e-13 1.248656e-13
C 3.650662e-04 -3.543149e-11 -9.746020e-13 5.946835e-01 -2.339557e-13 -1.657740e-13
O -1.165711e+00 -3.502339e-11 -9.156070e-13 3.190848e-01 -6.988535e-14 4.975561e-14
3
Lattice="1.800000e+01 0.000000e+00 0.000000e+00 0.000000e+00 1.800000e+01 0.000000e+00 0.000000e+00 0.000000e+00 1.800000e+01" Properties=species:S:1:pos:R:3:force:R:3 energy=1.854047e-03 dipole="-2.043843e-02 8.336259e-15 4.816683e-15" pol="2.577740e+01 9.708128e-10 -5.715486e-10 9.708128e-10 1.200815e+01 -3.543518e-13 -5.715486e-10 -3.543518e-13 1.200815e+01" pbc="T T T"
O 1.164207e+00 -3.874355e-11 -4.422089e-13 -3.740688e-02 5.330400e-14 2.043192e-14
C -4.654168e-04 -3.837056e-11 -3.849434e-13 8.597501e-01 -3.544107e-13 -9.315283e-14
O -1.156350e+00 -3.800577e-11 -3.303210e-13 -8.224000e-01 2.472456e-13 9.490978e-14
3
Lattice="1.800000e+01 0.000000e+00 0.000000e+00 0.000000e+00 1.800000e+01 0.000000e+00 0.000000e+00 0.000000e+00 1.800000e+01" Properties=species:S:1:pos:R:3:force:R:3 energy=2.372691e-03 dipole="6.644786e-03 7.378962e-16 1.687032e-15" pol="2.617704e+01 -2.679542e-10 4.165901e-11 -2.679542e-10 1.211478e+01 -2.617061e-12 4.165901e-11 -2.617061e-12 1.211478e+01" pbc="T T T"
O 1.171656e+00 -4.109163e-11 -2.185261e-13 -4.866584e-01 6.528258e-14 1.372080e-13
C 3.778509e-03 -4.099275e-11 7.159963e-14 -2.641154e-01 -4.987015e-15 1.109196e-14
O -1.166987e+00 -4.089360e-11 3.602472e-13 7.507868e-01 -7.722162e-14 -9.473883e-14
3
Lattice="1.800000e+01 0.000000e+00 0.000000e+00 0.000000e+00 1.800000e+01 0.000000e+00 0.000000e+00 0.000000e+00 1.800000e+01" Properties=species:S:1:pos:R:3:force:R:3 energy=2.623999e-03 dipole="-9.976905e-03 -1.958978e-15 4.242520e-15" pol="2.568138e+01 4.947684e-10 1.834210e-10 4.947684e-10 1.198163e+01 -2.154522e-13 1.834210e-10 -2.154522e-13 1.198163e+01" pbc="T T T"
O 1.161429e+00 -4.227958e-11 -1.198551e-13 4.241855e-01 -6.608616e-14 -1.115751e-13
C 1.173473e-03 -4.224880e-11 2.681993e-13 4.252852e-01 8.468091e-15 -1.271196e-13
O -1.154804e+00 -4.221113e-11 6.529998e-13 -8.494981e-01 3.430614e-14 3.152373e-13
3
Lattice="1.800000e+01 0.000000e+00 0.000000e+00 0.000000e+00 1.800000e+01 0.000000e+00 0.000000e+00 0.000000e+00 1.800000e+01" Properties=species:S:1:pos:R:3:force:R:3 energy=3.536706e-03 dipole="2.967483e-03 -1.840301e-15 -1.690654e-15" pol="2.622061e+01 1.779311e-10 2.274281e-10 1.779311e-10 1.212632e+01 -8.401123e-13 2.274281e-10 -8.401123e-13 1.212632e+01" pbc="T T T"
O 1.172853e+00 -4.347610e-11 1.813350e-14 -6.658056e-01 2.805470e-14 1.872575e-13
C 3.198563e-03 -4.346621e-11 4.427022e-13 -1.172102e-01 -8.203189e-15 1.457403e-14
O -1.167747e+00 -4.345804e-11 8.709222e-13 7.830211e-01 -7.060337e-14 -3.112422e-13
3
Lattice="1.800000e+01 0.000000e+00 0.000000e+00 0.000000e+00 1.800000e+01 0.000000e+00 0.000000e+00 0.000000e+00 1.800000e+01" Properties=species:S:1:pos:R:3:force:R:3 energy=1.069883e-03 dipole="-1.307689e-02 1.179313e-14 -3.234259e-15" pol="2.575889e+01 5.245611e-11 2.023495e-11 5.245611e-11 1.200273e+01 1.611751e-12 2.023495e-11 1.611751e-12 1.200273e+01" pbc="T T T"
O 1.163371e+00 -4.558240e-11 2.752745e-13 1.590096e-01 9.185267e-14 -1.568418e-13
C 6.861850e-04 -4.556006e-11 6.831108e-13 5.514119e-01 -1.044576e-13 -1.036497e-13
O -1.156379e+00 -4.555104e-11 1.100717e-12 -7.104583e-01 8.028571e-14 2.194763e-13
3
Lattice="1.800000e+01 0.000000e+00 0.000000e+00 0.000000e+00 1.800000e+01 0.000000e+00 0.000000e+00 0.000000e+00 1.800000e+01" Properties=species:S:1:pos:R:3:force:R:3 energy=4.839190e-04 dipole="-1.165850e-02 9.277987e-15 1.851575e-15" pol="2.578214e+01 -4.887868e-11 -6.261664e-11 -4.887868e-11 1.200896e+01 2.668576e-12 -6.261664e-11 2.668576e-12 1.200896e+01" pbc="T T T"
O 1.163818e+00 -4.710206e-11 5.042400e-13 1.282854e-01 2.905050e-14 -7.715667e-14
C 9.066626e-04 -4.705118e-11 8.257615e-13 4.899811e-01 -1.375149e-13 -1.051255e-13
O -1.156992e+00 -4.701832e-11 1.149547e-12 -6.182995e-01 9.156611e-14 1.779313e-13
3
Lattice="1.800000e+01 0.000000e+00 0.000000e+00 0.000000e+00 1.800000e+01 0.000000e+00 0.000000e+00 0.000000e+00 1.800000e+01" Properties=species:S:1:pos:R:3:force:R:3 energy=6.692749e-04 dipole="-2.123563e-02 -1.083953e-14 1.771323e-15" pol="2.593771e+01 -1.335574e-10 -2.877424e-11 -1.335574e-10 1.205147e+01 -8.519821e-13 -2.877424e-11 -8.519821e-13 1.205147e+01" pbc="T T T"
O 1.167886e+00 -4.914073e-11 8.414855e-13 -4.542828e-01 -1.141001e-13 1.591788e-13
C -6.044445e-04 -4.898318e-11 9.868711e-13 8.733729e-01 5.922989e-14 -1.068369e-13
O -1.159924e+00 -4.880170e-11 1.132645e-12 -4.191463e-01 -6.239124e-14 1.025293e-13
3
Lattice="1.800000e+01 0.000000e+00 0.000000e+00 0.000000e+00 1.800000e+01 0.000000e+00 0.000000e+00 0.000000e+00 1.800000e+01" Properties=species:S:1:pos:R:3:force:R:3 energy=-3.852592e-04 dipole="1.463926e-02 4.109223e-15 2.690632e-15" pol="2.593165e+01 2.558413e-10 1.368549e-10 2.558413e-10 1.204940e+01 -3.169737e-12 1.368549e-10 -3.169737e-12 1.204940e+01" pbc="T T T"
O 1.165652e+00 -5.211560e-11 1.115676e-12 2.931805e-01 6.120933e-14 -2.863084e-14
C 5.026652e-03 -5.166964e-11 1.150049e-12 -6.024755e-01 1.024770e-16 1.788976e-14
O -1.161919e+00 -5.124680e-11 1.185097e-12 3.093345e-01 -1.919307e-14 -3.184229e-14
3
Lattice="1.800000e+01 0.000000e+00 0.000000e+00 0.000000e+00 1.800000e+01 0.000000e+00 0.000000e+00 0.000000e+00 1.800000e+01" Properties=species:S:1:pos:R:3:force:R:3 energy=2.563973e-03 dipole="2.042018e-02 -2.590355e-14 -3.675339e-15" pol="2.574143e+01 -7.059580e-11 5.783625e-11 -7.059580e-11 1.199842e+01 -4.528579e-14 5.783625e-11 -4.528579e-14 1.199842e+01" pbc="T T T"
O 1.160994e+00 -5.329932e-11 1.165775e-12 9.180661e-01 -5.455034e-13 -5.605248e-14
C 5.917896e-03 -5.282754e-11 1.193944e-12 -8.633410e-01 5.618951e-13 4.627409e-14
O -1.157930e+00 -5.232020e-11 1.223209e-12 -5.466885e-02 -8.186328e-14 -3.470107e-14
3
Lattice="1.800000e+01 0.000000e+00 0.000000e+00 0.000000e+00 1.800000e+01 0.000000e+00 0.000000e+00 0.000000e+00 1.800000e+01" Properties=species:S:1:pos:R:3:force:R:3 energy=6.981700e-03 dipole="-4.251728e-02 2.000253e-14 1.685443e-15" pol="2.586910e+01 4.239244e-10 -5.197841e-10 4.239244e-10 1.203537e+01 2.493911e-12 -5.197841e-10 2.493911e-12 1.203537e+01" pbc="T T T"
O 1.167490e+00 -5.524761e-11 1.170653e-12 -6.938613e-01 3.198290e-13 2.135001e-14
C -3.932528e-03 -5.468294e-11 1.243090e-12 1.767493e+00 -8.426721e-13 -1.033885e-13
O -1.157030e+00 -5.412015e-11 1.315926e-12 -1.073737e+00 5.229547e-13 4.613024e-14
3
Lattice="1.800000e+01 0.000000e+00 0.000000e+00 0.000000e+00 1.800000e+01 0.000000e+00 0.000000e+00 0.000000e+00 1.800000e+01" Properties=species:S:1:pos:R:3:force:R:3 energy=-1.133670e-03 dipole="5.506287e-03 -2.688110e-14 -1.079427e-15" pol="2.596150e+01 -8.062039e-10 5.042412e-10 -8.062039e-10 1.205709e+01 1.867761e-13 5.042412e-10 1.867761e-13 1.205709e+01" pbc="T T T"
O 1.166877e+00 -5.673004e-11 1.102484e-12 2.495951e-02 -1.662101e-13 2.169799e-14
C 3.593650e-03 -5.612660e-11 1.263676e-12 -2.256147e-01 4.363661e-13 -5.089520e-15
O -1.162069e+00 -5.547650e-11 1.424184e-12 2.006699e-01 -2.991805e-13 3.901415e-14
3
Lattice="1.800000e+01 0.000000e+00 0.000000e+00 0.000000e+00 1.800000e+01 0.000000e+00 0.000000e+00 0.000000e+00 1.800000e+01" Properties=species:S:1:pos:R:3:force:R:3 energy=3.546822e-03 dipole="-2.625134e-02 1.762731e-14 5.197782e-15" pol="2.575403e+01 -3.295041e-10 5.047997e-10 -3.295041e-10 1.200228e+01 1.296222e-12 5.047997e-10 1.296222e-12 1.200228e+01" pbc="T T T"
O 1.163999e+00 -5.741069e-11 1.041834e-12 -9.406850e-02 5.062958e-14 5.660481e-14
C -1.371453e-03 -5.676387e-11 1.263266e-12 1.108140e+00 -6.219967e-13 -2.496694e-13
O -1.155462e+00 -5.612484e-11 1.483235e-12 -1.014143e+00 5.361183e-13 2.652684e-13
3
Lattice="1.800000e+01 0.000000e+00 0.000000e+00 0.000000e+00 1.800000e+01 0.000000e+00 0.000000e+00 0.000000e+00 1.800000e+01" Properties=species:S:1:pos:R:3:force:R:3 energy=6.212711e-04 dipole="2.395182e-03 1.514950e-14 3.284148e-15" pol="2.574376e+01 4.300668e-10 8.868978e-11 4.300668e-10 1.199838e+01 -7.621640e-13 8.868978e-11 -7.621640e-13 1.199838e+01" pbc="T T T"
O 1.162131e+00 -5.963941e-11 8.259027e-13 5.208680e-01 -1.709113e-13 -1.764885e-13
C 3.103208e-03 -5.895178e-11 1.220927e-12 -1.011818e-01 -1.313263e-13 7.309523e-14
O -1.156953e+00 -5.829078e-11 1.621932e-12 -4.196793e-01 4.193503e-13 1.562441e-13
3
Lattice="1.800000e+01 0.000000e+00 0.000000e+00 0.000000e+00 1.800000e+01 0.000000e+00 0.000000e+00 0.000000e+00 1.800000e+01" Properties=species:S:1:pos:R:3:force:R:3 energy=2.475465e-04 dipole="1.101054e-02 -2.393823e-14 -3.573969e-15" pol="2.579255e+01 7.747473e-11 -5.386728e-11 7.747473e-11 1.201175e+01 1.839091e-12 -5.386728e-11 1.839091e-12 1.201175e+01" pbc="T T T"
O 1.162725e+00 -6.089665e-11 7.389297e-13 5.769550e-01 -4.652244e-13 -1.955433e-13
C 4.450472e-03 -6.025684e-11 1.179321e-12 -4.620650e-01 5.142162e-13 1.295090e-13
O -1.158560e+00 -5.957832e-11 1.620213e-12 -1.148587e-01 -7.039656e-14 6.490383e-14
3
Lattice="1.800000e+01 0.000000e+00 0.000000e+00 0.000000e+00 1.800000e+01 0.000000e+00 0.000000e+00 0.000000e+00 1.800000e+01" Properties=species:S:1:pos:R:3:force:R:3 energy=3.708000e-03 dipole="-8.827367e-03 1.063200e-14 4.992411e-16" pol="2.564348e+01 -1.199166e-10 4.991885e-10 -1.199166e-10 1.197132e+01 1.561614e-12 4.991885e-10 1.561614e-12 1.197132e+01" pbc="T T T"
O 1.160499e+00 -6.207681e-11 6.596131e-13 5.479158e-01 -2.412503e-13 -1.854798e-13
C 1.354333e-03 -6.145100e-11 1.113996e-12 3.782892e-01 -3.127312e-13 -1.510076e-13
O -1.154009e+00 -6.084018e-11 1.568141e-12 -9.262287e-01 5.277095e-13 3.441341e-13
3
Lattice="1.800000e+01 0.000000e+00 0.000000e+00 0.000000e+00 1.800000e+01 0.000000e+00 0.000000e+00 0.000000e+00 1.800000e+01" Properties=species:S:1:pos:R:3:force:R:3 energy=-9.646928e-04 dipole="2.408574e-03 -2.201030e-14 2.018163e-16" pol="2.600452e+01 9.447486e-10 -4.413377e-11 9.447486e-10 1.206859e+01 1.596183e-12 -4.413377e-11 1.596183e-12 1.206859e+01" pbc="T T T"
O 1.168032e+00 -6.357450e-11 5.502375e-13 -1.471377e-01 -1.638321e-13 3.800061e-14
C 3.107833e-03 -6.302817e-11 1.010770e-12 -9.807513e-02 3.406366e-13 -2.499587e-15
O -1.162858e+00 -6.243810e-11 1.469774e-12 2.452190e-01 -2.594674e-13 -1.366908e-13
3
Lattice="1.800000e+01 0.000000e+00 0.000000e+00 0.000000e+00 1.800000e+01 0.000000e+00 0.000000e+00 0.000000e+00 1.800000e+01" Properties=species:S:1:pos:R:3:force:R:3 energy=2.621328e-03 dipole="1.760011e-04 8.851648e-15 -4.149682e-15" pol="2.566598e+01 -7.726505e-10 -6.737291e-10 -7.726505e-10 1.197730e+01 4.291923e-14 -6.737291e-10 4.291923e-14 1.197730e+01" pbc="T T T"
O 1.160490e+00 -6.577406e-11 4.401186e-13 6.791279e-01 -2.672665e-13 -2.619913e-13
C 2.756666e-03 -6.526473e-11 8.353838e-13 -7.515286e-03 -1.055034e-13 2.262051e-14
O -1.155052e+00 -6.477070e-11 1.238084e-12 -6.716121e-01 3.471258e-13 1.300001e-13
3
Lattice="1.800000e+01 0.000000e+00 0.000000e+00 0.000000e+00 1.800000e+01 0.000000e+00 0.000000e+00 0.000000e+00 1.800000e+01" Properties=species:S:1:pos:R:3:force:R:3 energy=3.327309e-03 dipole="-8.808204e-03 -2.782619e-15 1.304970e-15" pol="2.565501e+01 -3.594516e-10 -6.781674e-11 -3.594516e-10 1.197445e+01 -1.120770e-12 -6.781674e-11 -1.120770e-12 1.197445e+01" pbc="T T T"
O 1.160761e+00 -6.711104e-11 3.964863e-13 5.178831e-01 -1.621342e-13 -1.331330e-13
C 1.356400e-03 -6.664242e-11 7.193183e-13 3.768555e-01 -1.435402e-13 -1.670451e-13
O -1.154273e+00 -6.617394e-11 1.037027e-12 -8.947624e-01 3.771556e-13 2.380190e-13
3
Lattice="1.800000e+01 0.000000e+00 0.000000e+00 0.000000e+00 1.800000e+01 0.000000e+00 0.000000e+00 0.000000e+00 1.800000e+01" Properties=species:S:1:pos:R:3:force:R:3 energy=2.547508e-03 dipole="1.198148e-02 -3.495702e-15 2.987717e-17" pol="2.569128e+01 -1.842788e-10 1.603875e-10 -1.842788e-10 1.198439e+01 1.636783e-12 1.603875e-10 1.636783e-12 1.198439e+01" pbc="T T T"
O 1.160367e+00 -6.967376e-11 3.456707e-13 8.667356e-01 -1.842545e-13 -5.764911e-14
C 4.597555e-03 -6.934621e-11 4.473830e-13 -5.100418e-01 9.592120e-14 -3.584676e-14
O -1.156311e+00 -6.901800e-11 5.450714e-13 -3.566608e-01 1.052498e-13 1.238372e-13
3
Lattice="1.800000e+01 0.000000e+00 0.000000e+00 0.000000e+00 1.800000e+01 0.000000e+00 0.000000e+00 0.000000e+00 1.800000e+01" Properties=species:S:1:pos:R:3:force:R:3 energy=6.123347e-03 dipole="-3.164773e-02 -1.627486e-14 5.018780e-15" pol="2.616594e+01 -4.731208e-10 2.465948e-10 -4.731208e-10 1.211386e+01 2.314616e-12 2.465948e-10 2.314616e-12 1.211386e+01" pbc="T T T"
O 1.173601e+00 -7.028833e-11 3.028764e-13 -1.198575e+00 1.707308e-13 8.969105e-14
C -2.269699e-03 -7.003332e-11 3.744645e-13 1.261005e+00 3.226734e-14 -1.043737e-13
O -1.164390e+00 -6.973869e-11 4.376209e-13 -6.248985e-02 -1.206384e-13 1.222858e-13
3
Lattice="1.800000e+01 0.000000e+00 0.000000e+00 0.000000e+00 1.800000e+01 0.000000e+00 0.000000e+00 0.000000e+00 1.800000e+01" Properties=species:S:1:pos:R:3:force:R:3 energy=4.996091e-03 dipole="-3.449374e-02 -1.593588e-14 5.381969e-15" pol="2.580042e+01 7.165766e-10 -2.863512e-10 7.165766e-10 1.201569e+01 -4.379367e-13 -2.863512e-10 -4.379367e-13 1.201569e+01" pbc="T T T"
O 1.165503e+00 -7.203837e-11 1.107973e-13 -3.720721e-01 -6.014966e-14 6.533688e-14
C -2.665482e-03 -7.192841e-11 1.496014e-13 1.447159e+00 6.637303e-14 -9.044222e-14
O -1.155994e+00 -7.178735e-11 1.779433e-13 -1.075177e+00 3.190694e-14 3.287339e-14
3
Lattice="1.800000e+01 0.000000e+00 0.000000e+00 0.000000e+00 1.800000e+01 0.000000e+00 0.000000e+00 0.000000e+00 1.800000e+01" Properties=species:S:1:pos:R:3:force:R:3 energy=8.707120e-03 dipole="-4.021821e-02 1.276148e-14 2.462246e-15" pol="2.571639e+01 -8.581633e-10 -2.344454e-10 -8.581633e-10 1.199357e+01 -9.700118e-13 -2.344454e-10 -9.700118e-13 1.199357e+01" pbc="T T T"
O 1.163900e+00 -7.615216e-11 -5.115663e-13 -2.727843e-01 1.754658e-13 -6.859761e-14
C -3.546537e-03 -7.605650e-11 -4.258011e-13 1.707912e+00 -2.870363e-13 -8.892688e-14
O -1.153730e+00 -7.598646e-11 -3.323812e-13 -1.435227e+00 1.595694e-13 1.010377e-13
3
Lattice="1.800000e+01 0.000000e+00 0.000000e+00 0.000000e+00 1.800000e+01 0.000000e+00 0.000000e+00 0.000000e+00 1.800000e+01" Properties=species:S:1:pos:R:3:force:R:3 energy=-5.741661e-05 dipole="1.351268e-03 -3.758078e-17 -1.749458e-16" pol="2.577797e+01 -3.410641e-10 -3.386994e-10 -3.410641e-10 1.200762e+01 -4.435185e-13 -3.386994e-10 -4.435185e-13 1.200762e+01" pbc="T T T"
O 1.162969e+00 5.247045e-17 1.961657e-16 4.092841e-01 -2.249642e-14 -2.489435e-14
C 2.940208e-03 -1.612098e-16 -1.475776e-16 -5.678670e-02 -9.007437e-15 3.252101e-14
O -1.157669e+00 -5.742623e-16 2.475110e-16 -3.524935e-01 1.152428e-14 6.141361e-14
3
Lattice="1.800000e+01 0.000000e+00 0.000000e+00 0.000000e+00 1.800000e+01 0.000000e+00 0.000000e+00 0.000000e+00 1.800000e+01" Properties=species:S:1:pos:R:3:force:R:3 energy=5.411777e-04 dipole="-8.625421e-03 7.584435e-16 -5.014986e-15" pol="2.576331e+01 -2.707828e-10 -4.265630e-11 -2.707828e-10 1.200377e+01 -2.216755e-12 -4.265630e-11 -2.216755e-12 1.200377e+01" pbc="T T T"
O 1.163214e+00 -2.393665e-14 -1.144146e-14 2.391045e-01 3.556834e-15 -2.314904e-15
C 1.379009e-03 3.284814e-15 1.177918e-14 3.634496e-01 3.328444e-14 4.118734e-15
O -1.156749e+00 2.906719e-14 3.959987e-14 -6.025786e-01 1.749216e-14 -1.912287e-14
3
Lattice="1.800000e+01 0.000000e+00 0.000000e+00 0.000000e+00 1.800000e+01 0.000000e+00 0.000000e+00 0.000000e+00 1.800000e+01" Properties=species:S:1:pos:R:3:force:R:3 energy=7.621574e-03 dipole="-3.860179e-02 1.239259e-15 -4.253288e-15" pol="2.614205e+01 -1.296690e-10 3.691858e-10 -1.296690e-10 1.210848e+01 -4.333715e-12 3.691858e-10 -4.333715e-12 1.210848e+01" pbc="T T T"
O 1.173433e+00 -5.928096e-14 -3.917005e-14 -1.270019e+00 4.269706e-14 3.913473e-14
C -3.369167e-03 -2.206605e-15 1.081904e-14 1.543916e+00 -7.857719e-14 -3.969850e-14
O -1.163411e+00 5.475174e-14 6.618526e-14 -2.739713e-01 -1.422053e-14 1.760131e-14
3
Lattice="1.800000e+01 0.000000e+00 0.000000e+00 0.000000e+00 1.800000e+01 0.000000e+00 0.000000e+00 0.000000e+00 1.800000e+01" Properties=species:S:1:pos:R:3:force:R:3 energy=7.785287e-03 dipole="-4.330582e-02 1.602770e-15 5.623054e-15" pol="2.605900e+01 4.823115e-10 -5.086727e-10 4.823115e-10 1.208688e+01 -1.657301e-12 -5.086727e-10 -1.657301e-12 1.208688e+01" pbc="T T T"
O 1.171813e+00 -2.090436e-13 -1.696641e-13 -1.161745e+00 1.432754e-13 1.704540e-13
C -4.097818e-03 -1.898607e-14 -8.813034e-15 1.752972e+00 -2.862516e-13 -2.558579e-13
O -1.161248e+00 1.705051e-13 1.494591e-13 -5.913197e-01 1.045066e-13 1.058232e-13
3
Lattice="1.800000e+01 0.000000e+00 0.000000e+00 0.000000e+00 1.800000e+01 0.000000e+00 0.000000e+00 0.000000e+00 1.800000e+01" Properties=species:S:1:pos:R:3:force:R:3 energy=2.618690e-03 dipole="-2.807551e-02 9.760153e-15 9.688506e-15" pol="2.602180e+01 -5.168896e-10 -1.786166e-10 -5.168896e-10 1.207473e+01 -3.130184e-13 -1.786166e-10 -3.130184e-13 1.207473e+01" pbc="T T T"
O 1.170154e+00 -3.558300e-13 -3.042431e-13 -7.906408e-01 2.562832e-13 1.914930e-13
C -1.697741e-03 -4.618891e-14 -3.636322e-14 1.141405e+00 -2.987697e-13 -3.093772e-13
O -1.161398e+00 2.593852e-13 2.235426e-13 -3.508316e-01 7.365581e-14 1.423837e-13
3
Lattice="1.800000e+01 0.000000e+00 0.000000e+00 0.000000e+00 1.800000e+01 0.000000e+00 0.000000e+00 0.000000e+00 1.800000e+01" Properties=species:S:1:pos:R:3:force:R:3 energy=1.054315e-02 dipole="-3.876793e-02 1.324373e-14 1.278356e-14" pol="2.624399e+01 -1.049492e-10 3.257632e-10 -1.049492e-10 1.213588e+01 1.425838e-12 3.257632e-10 1.425838e-12 1.213588e+01" pbc="T T T"
O 1.175721e+00 -4.272133e-13 -3.730953e-13 -1.507270e+00 4.360496e-13 3.877917e-13
C -3.418328e-03 -6.779066e-14 -5.803578e-14 1.528487e+00 -4.163217e-13 -4.153464e-13
O -1.165679e+00 2.934403e-13 2.554630e-13 -2.127624e-02 -5.701409e-14 6.488419e-15
3
Lattice="1.800000e+01 0.000000e+00 0.000000e+00 0.000000e+00 1.800000e+01 0.000000e+00 0.000000e+00 0.000000e+00 1.800000e+01" Properties=species:S:1:pos:R:3:force:R:3 energy=6.182830e-03 dipole="4.113890e-02 -1.858493e-14 -1.945547e-14" pol="2.593615e+01 -7.272007e-10 4.343290e-11 -7.272007e-10 1.205333e+01 -3.370466e-12 4.343290e-11 -3.370466e-12 1.205333e+01" pbc="T T T"
O 1.164074e+00 -4.913620e-13 -4.393994e-13 8.638783e-01 -2.138122e-13 -2.708275e-13
C 9.174168e-03 -9.077784e-14 -8.883875e-14 -1.694006e+00 5.882002e-13 5.736823e-13
O -1.163488e+00 3.175080e-13 2.777004e-13 8.302272e-01 -3.084623e-13 -3.045010e-13
3
Lattice="1.800000e+01 0.000000e+00 0.000000e+00 0.000000e+00 1.800000e+01 0.000000e+00 0.000000e+00 0.000000e+00 1.800000e+01" Properties=species:S:1:pos:R:3:force:R:3 energy=5.430501e-03 dipole="2.051312e-02 -1.573120e-14 -7.293726e-15" pol="2.564005e+01 8.509805e-11 -1.144029e-10 8.509805e-11 1.197092e+01 -1.575695e-12 -1.144029e-10 -1.575695e-12 1.197092e+01" pbc="T T T"
O 1.158657e+00 -1.116020e-12 -8.461505e-13 1.194421e+00 -7.609929e-13 -3.819918e-13
C 5.895728e-03 -3.740674e-13 -4.409398e-13 -8.797321e-01 6.289912e-13 2.818509e-13
O -1.155652e+00 3.811413e-13 -3.394698e-14 -3.146357e-01 1.792870e-13 1.789730e-13
3
Lattice="1.800000e+01 0.000000e+00 0.000000e+00 0.000000e+00 1.800000e+01 0.000000e+00 0.000000e+00 0.000000e+00 1.800000e+01" Properties=species:S:1:pos:R:3:force:R:3 energy=9.468172e-03 dipole="-3.550638e-02 8.736472e-15 4.257482e-15" pol="2.624204e+01 -3.525276e-10 1.178236e-09 -3.525276e-10 1.213482e+01 8.900895e-13 1.178236e-09 8.900895e-13 1.213482e+01" pbc="T T T"
O 1.175452e+00 -1.442688e-12 -1.249563e-12 -1.444413e+00 5.196698e-13 1.129038e-15
C -2.953982e-03 -9.945039e-13 -1.279984e-12 1.399981e+00 -4.597138e-13 -3.048552e-14
O -1.165901e+00 -5.407193e-13 -1.318814e-12 4.437708e-02 -8.120760e-14 1.468517e-15
3
Lattice="1.800000e+01 0.000000e+00 0.000000e+00 0.000000e+00 1.800000e+01 0.000000e+00 0.000000e+00 0.000000e+00 1.800000e+01" Properties=species:S:1:pos:R:3:force:R:3 energy=7.287800e-03 dipole="-3.649693e-02 1.281577e-14 -6.215410e-15" pol="2.615646e+01 -2.996780e-10 3.746906e-11 -2.996780e-10 1.211202e+01 -7.805377e-13 3.746906e-11 -7.805377e-13 1.211202e+01" pbc="T T T"
O 1.173579e+00 -1.512318e-12 -1.346649e-12 -1.265209e+00 4.014592e-13 -1.196951e-13
C -3.104146e-03 -1.147821e-12 -1.463556e-12 1.456577e+00 -4.773896e-13 1.598527e-13
O -1.163934e+00 -7.922793e-13 -1.577152e-12 -1.914374e-01 1.062055e-13 2.388726e-14
3
Lattice="1.800000e+01 0.000000e+00 0.000000e+00 0.000000e+00 1.800000e+01 0.000000e+00 0.000000e+00 0.000000e+00 1.800000e+01" Properties=species:S:1:pos:R:3:force:R:3 energy=4.174216e-04 dipole="-1.985225e-02 -6.981637e-15 2.135649e-15" pol="2.593805e+01 1.759580e-10 6.773877e-10 1.759580e-10 1.205145e+01 2.046411e-12 6.773877e-10 2.046411e-12 1.205145e+01" pbc="T T T"
O 1.167738e+00 -1.539897e-12 -1.393380e-12 -4.280456e-01 1.740426e-14 4.422377e-14
C -4.651675e-04 -1.302717e-12 -1.599307e-12 8.164009e-01 -4.203464e-14 2.294548e-15
O -1.160095e+00 -1.046886e-12 -1.822250e-12 -3.884081e-01 3.035810e-14 -6.589145e-14
3
Lattice="1.800000e+01 0.000000e+00 0.000000e+00 0.000000e+00 1.800000e+01 0.000000e+00 0.000000e+00 0.000000e+00 1.800000e+01" Properties=species:S:1:pos:R:3:force:R:3 energy=7.469534e-03 dipole="-3.804385e-02 9.479617e-15 -2.057069e-14" pol="2.573457e+01 -1.609512e-10 -1.945477e-10 -1.609512e-10 1.199824e+01 4.860745e-13 -1.945477e-10 4.860745e-13 1.199824e+01" pbc="T T T"
O 1.164104e+00 -1.652671e-12 -1.434477e-12 -2.763013e-01 1.026031e-13 -2.306872e-13
C -3.303363e-03 -1.579409e-12 -1.847928e-12 1.611251e+00 -1.972945e-13 6.914548e-13
O -1.154373e+00 -1.523995e-12 -2.238002e-12 -1.335047e+00 1.848880e-13 -5.956223e-13
3
Lattice="1.800000e+01 0.000000e+00 0.000000e+00 0.000000e+00 1.800000e+01 0.000000e+00 0.000000e+00 0.000000e+00 1.800000e+01" Properties=species:S:1:pos:R:3:force:R:3 energy=6.413781e-03 dipole="2.921232e-02 -1.088764e-14 1.804688e-14" pol="2.619919e+01 -3.710150e-10 4.041509e-10 -3.710150e-10 1.212245e+01 1.664886e-12 4.041509e-10 1.664886e-12 1.212245e+01" pbc="T T T"
O 1.170642e+00 -1.805433e-12 -1.524755e-12 -7.271088e-02 -7.010740e-14 6.678494e-14
C 7.242026e-03 -1.811243e-12 -1.984996e-12 -1.158375e+00 2.074978e-13 -5.570007e-13
O -1.168862e+00 -1.794658e-12 -2.464823e-12 1.231138e+00 -9.046138e-14 5.663585e-13
3
Lattice="1.800000e+01 0.000000e+00 0.000000e+00 0.000000e+00 1.800000e+01 0.000000e+00 0.000000e+00 0.000000e+00 1.800000e+01" Properties=species:S:1:pos:R:3:force:R:3 energy=3.017342e-03 dipole="1.603929e-02 -7.632651e-16 2.073824e-15" pol="2.569338e+01 -2.164213e-10 -2.010868e-10 -2.164213e-10 1.198513e+01 5.270728e-13 -2.010868e-10 5.270728e-13 1.198513e+01" pbc="T T T"
O 1.160056e+00 -1.931044e-12 -1.572830e-12 9.502602e-01 -4.743110e-14 4.293979e-13
C 5.116686e-03 -1.951402e-12 -2.077739e-12 -6.826399e-01 1.901691e-14 -2.484000e-13
O -1.156703e+00 -1.967729e-12 -2.578918e-12 -2.675764e-01 -2.175307e-14 -1.206095e-13
3
Lattice="1.800000e+01 0.000000e+00 0.000000e+00 0.000000e+00 1.800000e+01 0.000000e+00 0.000000e+00 0.000000e+00 1.800000e+01" Properties=species:S:1:pos:R:3:force:R:3 energy=5.022680e-03 dipole="2.478750e-02 -6.313118e-15 2.009472e-14" pol="2.568127e+01 -3.721620e-10 -3.953090e-10 -3.721620e-10 1.198242e+01 -2.846347e-12 -3.953090e-10 -2.846347e-12 1.198242e+01" pbc="T T T"
O 1.159237e+00 -2.081232e-12 -1.606904e-12 1.178165e+00 2.069260e-14 5.606723e-13
C 6.470654e-03 -2.141780e-12 -2.161046e-12 -1.057050e+00 2.179878e-14 -6.264815e-13
O -1.156926e+00 -2.192964e-12 -2.739547e-12 -1.210495e-01 -8.990271e-14 1.162846e-13
3
Lattice="1.800000e+01 0.000000e+00 0.000000e+00 0.000000e+00 1.800000e+01 0.000000e+00 0.000000e+00 0.000000e+00 1.800000e+01" Properties=species:S:1:pos:R:3:force:R:3 energy=7.638046e-03 dipole="4.069557e-02 1.724913e-14 1.118107e-14" pol="2.610868e+01 -1.820212e-10 -8.268357e-11 -1.820212e-10 1.209984e+01 5.558930e-12 -8.268357e-11 5.558930e-12 1.209984e+01" pbc="T T T"
O 1.167852e+00 -2.145234e-12 -1.603189e-12 4.052106e-01 2.135041e-13 8.227259e-14
C 9.017623e-03 -2.215767e-12 -2.213472e-12 -1.635547e+00 -3.836924e-13 -7.303867e-13
O -1.167470e+00 -2.322645e-12 -2.818320e-12 1.230419e+00 2.230326e-13 5.286293e-13
3
Lattice="1.800000e+01 0.000000e+00 0.000000e+00 0.000000e+00 1.800000e+01 0.000000e+00 0.000000e+00 0.000000e+00 1.800000e+01" Properties=species:S:1:pos:R:3:force:R:3 energy=7.287563e-03 dipole="2.752909e-02 -7.403945e-15 3.071065e-14" pol="2.623951e+01 1.634312e-10 -6.915646e-10 1.634312e-10 1.213302e+01 -7.946139e-13 -6.915646e-10 -7.946139e-13 1.213302e+01" pbc="T T T"
O 1.171609e+00 -2.237668e-12 -1.611083e-12 -2.082036e-01 -1.551023e-13 1.851194e-14
C 6.939704e-03 -2.497204e-12 -2.294468e-12 -1.085350e+00 1.822208e-14 -8.639067e-13
O -1.169714e+00 -2.728633e-12 -3.012795e-12 1.293598e+00 1.326355e-13 8.730616e-13
3
Lattice="1.800000e+01 0.000000e+00 0.000000e+00 0.000000e+00 1.800000e+01 0.000000e+00 0.000000e+00 0.000000e+00 1.800000e+01" Properties=species:S:1:pos:R:3:force:R:3 energy=3.484031e-03 dipole="-1.719687e-02 3.005283e-16 -1.394398e-14" pol="2.568319e+01 -6.757545e-10 -5.661328e-10 -6.757545e-10 1.198243e+01 1.109873e-12 -5.661328e-10 1.109873e-12 1.198243e+01" pbc="T T T"
O 1.161714e+00 -2.315912e-12 -1.651901e-12 2.702840e-01 1.369555e-13 1.385369e-13
C -1.189555e-04 -2.700171e-12 -2.368835e-12 7.329782e-01 1.821500e-13 5.166464e-13
O -1.154576e+00 -3.088177e-12 -3.070613e-12 -1.003309e+00 -3.124323e-13 -6.863191e-13
3
Lattice="1.800000e+01 0.000000e+00 0.000000e+00 0.000000e+00 1.800000e+01 0.000000e+00 0.000000e+00 0.000000e+00 1.800000e+01" Properties=species:S:1:pos:R:3:force:R:3 energy=7.821417e-03 dipole="3.012060e-02 1.775020e-14 2.695308e-14" pol="2.563688e+01 7.395603e-10 -1.630975e-09 7.395603e-10 1.197081e+01 4.616856e-12 -1.630975e-09 4.616856e-12 1.197081e+01" pbc="T T T"
O 1.157842e+00 -2.413238e-12 -1.732343e-12 1.421191e+00 4.810814e-13 7.462009e-13
C 7.241194e-03 -2.814632e-12 -2.388421e-12 -1.292799e+00 -4.892915e-13 -8.067213e-13
O -1.156261e+00 -3.232722e-12 -3.064498e-12 -1.283170e-01 -3.347112e-14 -1.192935e-13
3
Lattice="1.800000e+01 0.000000e+00 0.000000e+00 0.000000e+00 1.800000e+01 0.000000e+00 0.000000e+00 0.000000e+00 1.800000e+01" Properties=species:S:1:pos:R:3:force:R:3 energy=8.277018e-03 dipole="-4.032891e-02 8.642156e-15 -1.598133e-14" pol="2.573537e+01 1.137233e-12 -5.813876e-10 1.137233e-12 1.199875e+01 -2.064717e-12 -5.813876e-10 -2.064717e-12 1.199875e+01" pbc="T T T"
O 1.164113e+00 -2.982479e-12 -1.938789e-12 -3.224669e-01 6.964297e-14 -2.260605e-13
C -3.791697e-03 -3.141901e-12 -2.355874e-12 1.708066e+00 6.098687e-14 6.591907e-13
O -1.154378e+00 -3.325421e-12 -2.764543e-12 -1.385700e+00 -7.701540e-14 -5.008396e-13
3
Lattice="1.800000e+01 0.000000e+00 0.000000e+00 0.000000e+00 1.800000e+01 0.000000e+00 0.000000e+00 0.000000e+00 1.800000e+01" Properties=species:S:1:pos:R:3:force:R:3 energy=6.057486e-04 dipole="2.088583e-02 1.050336e-16 -9.146843e-15" pol="2.591958e+01 -1.064386e-09 -5.134470e-10 -1.064386e-09 1.204656e+01 -8.600976e-13 -5.134470e-10 -8.600976e-13 1.204656e+01" pbc="T T T"
O 1.164754e+00 -3.152811e-12 -2.005168e-12 4.585334e-01 8.549643e-14 -7.327873e-15
C 5.764528e-03 -3.230322e-12 -2.313908e-12 -8.611721e-01 -7.204249e-14 2.871721e-14
O -1.162239e+00 -3.309180e-12 -2.596918e-12 4.026947e-01 3.655638e-14 -4.776946e-14
3
Lattice="1.800000e+01 0.000000e+00 0.000000e+00 0.000000e+00 1.800000e+01 0.000000e+00 0.000000e+00 0.000000e+00 1.800000e+01" Properties=species:S:1:pos:R:3:force:R:3 energy=1.069721e-02 dipole="-4.014073e-02 1.414445e-15 -2.256453e-14" pol="2.623496e+01 -5.094306e-10 3.676590e-10 -5.094306e-10 1.213370e+01 9.990047e-13 3.676590e-10 9.990047e-13 1.213370e+01" pbc="T T T"
O 1.175329e+00 -3.304259e-12 -2.116292e-12 -1.511187e+00 -3.074009e-14 -2.105985e-13
C -3.896741e-03 -3.337968e-12 -2.180386e-12 1.584774e+00 2.328107e-14 3.522216e-13
O -1.165650e+00 -3.374021e-12 -2.202743e-12 -7.365025e-02 7.996194e-14 -1.829791e-13
3
Lattice="1.800000e+01 0.000000e+00 0.000000e+00 0.000000e+00 1.800000e+01 0.000000e+00 0.000000e+00 0.000000e+00 1.800000e+01" Properties=species:S:1:pos:R:3:force:R:3 energy=7.530636e-03 dipole="3.569785e-02 2.893449e-15 -2.839832e-14" pol="2.617562e+01 -5.658970e-10 6.671509e-11 -5.658970e-10 1.211704e+01 1.308836e-12 6.671509e-11 1.308836e-12 1.211704e+01" pbc="T T T"
O 1.169494e+00 -3.315220e-12 -2.149641e-12 1.257488e-01 5.662678e-14 -1.996446e-13
C 8.060941e-03 -3.404084e-12 -2.023799e-12 -1.420777e+00 -9.220588e-14 4.906118e-13
O -1.168887e+00 -3.496069e-12 -1.851621e-12 1.295094e+00 8.666768e-14 -3.320720e-13
3
Lattice="1.800000e+01 0.000000e+00 0.000000e+00 0.000000e+00 1.800000e+01 0.000000e+00 0.000000e+00 0.000000e+00 1.800000e+01" Properties=species:S:1:pos:R:3:force:R:3 energy=1.052664e-02 dipole="-4.116339e-02 2.028159e-15 9.662533e-15" pol="2.566605e+01 1.080201e-09 3.162907e-10 1.080201e-09 1.197998e+01 3.176681e-12 3.162907e-10 3.176681e-12 1.197998e+01" pbc="T T T"
O 1.162481e+00 -3.272671e-12 -2.214471e-12 -1.642388e-01 9.298069e-14 -7.485578e-15
C -4.008395e-03 -3.413854e-12 -1.954320e-12 1.760547e+00 8.003462e-14 -4.099976e-13
O -1.152853e+00 -3.574241e-12 -1.698459e-12 -1.596406e+00 -1.291472e-13 4.239008e-13
3
Lattice="1.800000e+01 0.000000e+00 0.000000e+00 0.000000e+00 1.800000e+01 0.000000e+00 0.000000e+00 0.000000e+00 1.800000e+01" Properties=species:S:1:pos:R:3:force:R:3 energy=4.514102e-03 dipole="1.028216e-02 -2.493814e-15 -2.646676e-14" pol="2.623780e+01 -1.053824e-10 2.410754e-10 -1.053824e-10 1.213109e+01 1.201051e-12 2.410754e-10 1.201051e-12 1.213109e+01" pbc="T T T"
O 1.172465e+00 -3.217312e-12 -2.248514e-12 -5.605052e-01 -1.296367e-13 -2.378844e-14
C 4.025794e-03 -3.427085e-12 -1.950784e-12 -4.052339e-01 5.611095e-14 4.592312e-13
O -1.168890e+00 -3.625892e-12 -1.605542e-12 9.657563e-01 4.558193e-14 -4.826448e-13
3
Lattice="1.800000e+01 0.000000e+00 0.000000e+00 0.000000e+00 1.800000e+01 0.000000e+00 0.000000e+00 0.000000e+00 1.800000e+01" Properties=species:S:1:pos:R:3:force:R:3 energy=1.099372e-02 dipole="4.132673e-02 -7.453883e-16 -1.557463e-14" pol="2.565376e+01 5.802743e-10 4.599752e-10 5.802743e-10 1.197665e+01 -1.698362e-12 4.599752e-10 -1.698362e-12 1.197665e+01" pbc="T T T"
O 1.157360e+00 -3.155771e-12 -2.281900e-12 1.634425e+00 2.752286e-13 -4.923076e-13
C 8.827479e-03 -3.427364e-12 -1.917850e-12 -1.770602e+00 -3.052733e-13 5.763062e-13
O -1.157414e+00 -3.685380e-12 -1.545085e-12 1.362753e-01 -2.890992e-14 -1.976987e-14
3
Lattice="1.800000e+01 0.000000e+00 0.000000e+00 0.000000e+00 1.800000e+01 0.000000e+00 0.000000e+00 0.000000e+00 1.800000e+01" Properties=species:S:1:pos:R:3:force:R:3 energy=8.701732e-03 dipole="4.009796e-02 2.627911e-15 -1.849099e-14" pol="2.571488e+01 4.687352e-10 2.097588e-10 4.687352e-10 1.199314e+01 5.180350e-12 2.097588e-10 5.180350e-12 1.199314e+01" pbc="T T T"
O 1.158809e+00 -3.071821e-12 -2.304642e-12 1.436585e+00 2.406004e-13 -5.118859e-13
C 8.632486e-03 -3.424613e-12 -1.896495e-12 -1.703154e+00 -3.668333e-13 7.177428e-13
O -1.158755e+00 -3.763049e-12 -1.469637e-12 2.666682e-01 -5.075886e-14 -1.167988e-13
3
Lattice="1.800000e+01 0.000000e+00 0.000000e+00 0.000000e+00 1.800000e+01 0.000000e+00 0.000000e+00 0.000000e+00 1.800000e+01" Properties=species:S:1:pos:R:3:force:R:3 energy=3.596313e-03 dipole="-1.359180e-02 -1.093298e-14 7.990111e-15" pol="2.566230e+01 -4.856733e-10 2.266437e-10 -4.856733e-10 1.197659e+01 3.789248e-12 2.266437e-10 3.789248e-12 1.197659e+01" pbc="T T T"
O 1.160824e+00 -2.956582e-12 -2.339496e-12 3.990286e-01 9.681963e-14 -9.015250e-14
C 2.346597e-04 -3.396538e-12 -1.857322e-12 5.809762e-01 3.432593e-13 -2.473633e-13
O -1.154529e+00 -3.819605e-12 -1.378972e-12 -9.800414e-01 -4.103531e-13 4.108318e-13
3
Lattice="1.800000e+01 0.000000e+00 0.000000e+00 0.000000e+00 1.800000e+01 0.000000e+00 0.000000e+00 0.000000e+00 1.800000e+01" Properties=species:S:1:pos:R:3:force:R:3 energy=1.114989e-02 dipole="-4.185254e-02 -2.063797e-15 3.815067e-14" pol="2.623080e+01 -5.768408e-10 4.242613e-11 -5.768408e-10 1.213289e+01 1.663758e-13 4.242613e-11 1.663758e-13 1.213289e+01" pbc="T T T"
O 1.175188e+00 -2.871584e-12 -2.420117e-12 -1.532134e+00 -5.001026e-13 9.839555e-13
C -4.305439e-03 -3.318301e-12 -1.839772e-12 1.653529e+00 4.182163e-13 -1.099107e-12
O -1.165583e+00 -3.792087e-12 -1.304399e-12 -1.214605e-01 6.748557e-14 1.274653e-13
3
Lattice="1.800000e+01 0.000000e+00 0.000000e+00 0.000000e+00 1.800000e+01 0.000000e+00 0.000000e+00 0.000000e+00 1.800000e+01" Properties=species:S:1:pos:R:3:force:R:3 energy=7.050827e-03 dipole="-4.045375e-02 -2.225579e-14 1.611853e-14" pol="2.579930e+01 -2.501342e-10 9.792527e-11 -2.501342e-10 1.201614e+01 -1.262000e-12 9.792527e-11 -1.262000e-12 1.201614e+01" pbc="T T T"
O 1.165370e+00 -2.841535e-12 -2.478116e-12 -4.837638e-01 -2.916117e-13 2.484735e-13
C -4.025661e-03 -3.285243e-12 -1.879294e-12 1.698051e+00 7.698319e-13 -8.297074e-13
O -1.156018e+00 -3.707183e-12 -1.281240e-12 -1.214390e+00 -5.320763e-13 6.735473e-13
3
Lattice="1.800000e+01 0.000000e+00 0.000000e+00 0.000000e+00 1.800000e+01 0.000000e+00 0.000000e+00 0.000000e+00 1.800000e+01" Properties=species:S:1:pos:R:3:force:R:3 energy=8.957360e-03 dipole="-3.829157e-02 -5.511345e-15 2.465907e-14" pol="2.568232e+01 5.139357e-10 4.922275e-10 5.139357e-10 1.198406e+01 2.524956e-12 4.922275e-10 2.524956e-12 1.198406e+01" pbc="T T T"
O 1.162565e+00 -2.846133e-12 -2.581760e-12 -1.494526e-01 5.545208e-15 1.791760e-13
C -3.696486e-03 -3.191666e-12 -1.925015e-12 1.633710e+00 4.266658e-13 -1.053007e-12
O -1.153537e+00 -3.544402e-12 -1.294938e-12 -1.484352e+00 -4.067516e-13 8.808317e-13
3
Lattice="1.800000e+01 0.000000e+00 0.000000e+00 0.000000e+00 1.800000e+01 0.000000e+00 0.000000e+00 0.000000e+00 1.800000e+01" Properties=species:S:1:pos:R:3:force:R:3 energy=4.776639e-03 dipole="1.295889e-02 -1.213533e-14 -2.164720e-14" pol="2.623790e+01 5.546511e-10 4.802022e-10 5.546511e-10 1.213126e+01 2.475955e-12 4.802022e-10 2.475955e-12 1.213126e+01" pbc="T T T"
O 1.172160e+00 -2.863064e-12 -2.639274e-12 -5.064384e-01 -2.004911e-13 8.710462e-14
C 4.306505e-03 -3.123946e-12 -2.000679e-12 -5.107528e-01 1.029546e-13 4.511289e-13
O -1.169189e+00 -3.358506e-12 -1.329962e-12 1.017213e+00 7.228694e-14 -6.625541e-13
3
Lattice="1.800000e+01 0.000000e+00 0.000000e+00 0.000000e+00 1.800000e+01 0.000000e+00 0.000000e+00 0.000000e+00 1.800000e+01" Properties=species:S:1:pos:R:3:force:R:3 energy=9.388071e-03 dipole="-4.336937e-02 -1.694107e-14 1.248522e-14" pol="2.614649e+01 1.397530e-10 3.861102e-10 1.397530e-10 1.211049e+01 5.263099e-13 3.861102e-10 5.263099e-13 1.211049e+01" pbc="T T T"
O 1.173287e+00 -2.870904e-12 -2.718693e-12 -1.366224e+00 -1.793236e-13 6.501592e-13
C -4.619496e-03 -2.974990e-12 -2.106923e-12 1.734091e+00 3.390334e-13 -7.504184e-13
O -1.163694e+00 -3.052701e-12 -1.482277e-12 -3.679480e-01 -1.205944e-13 1.653374e-13
3
Lattice="1.800000e+01 0.000000e+00 0.000000e+00 0.000000e+00 1.800000e+01 0.000000e+00 0.000000e+00 0.000000e+00 1.800000e+01" Properties=species:S:1:pos:R:3:force:R:3 energy=1.739681e-03 dipole="2.169979e-02 -1.353607e-14 -1.876163e-14" pol="2.606190e+01 -2.171339e-10 2.620366e-10 -2.171339e-10 1.208487e+01 5.156139e-13 2.620366e-10 5.156139e-13 1.208487e+01" pbc="T T T"
O 1.167617e+00 -2.809475e-12 -2.788027e-12 1.114759e-01 -8.662889e-14 -1.224501e-13
C 5.615998e-03 -2.804073e-12 -2.249662e-12 -8.769986e-01 2.035352e-13 5.417496e-13
O -1.165787e+00 -2.776201e-12 -1.687197e-12 7.655734e-01 -6.639243e-14 -3.708911e-13
3
Lattice="1.800000e+01 0.000000e+00 0.000000e+00 0.000000e+00 1.800000e+01 0.000000e+00 0.000000e+00 0.000000e+00 1.800000e+01" Properties=species:S:1:pos:R:3:force:R:3 energy=-8.081396e-04 dipole="-1.070776e-02 4.451819e-15 1.172361e-14" pol="2.590802e+01 3.848280e-10 4.200798e-10 3.848280e-10 1.204286e+01 1.078409e-12 4.200798e-10 1.078409e-12 1.204286e+01" pbc="T T T"
O 1.166065e+00 -2.780509e-12 -2.887594e-12 -1.717306e-01 4.588883e-14 1.047239e-13
C 4.965806e-04 -2.664355e-12 -2.366002e-12 4.421058e-01 -1.637875e-13 -3.371590e-13
O -1.160452e+00 -2.561372e-12 -1.856784e-12 -2.704048e-01 5.662175e-14 1.905596e-13
3
Lattice="1.800000e+01 0.000000e+00 0.000000e+00 0.000000e+00 1.800000e+01 0.000000e+00 0.000000e+00 0.000000e+00 1.800000e+01" Properties=species:S:1:pos:R:3:force:R:3 energy=2.145533e-04 dipole="1.555526e-02 -1.412273e-14 -1.873555e-14" pol="2.583697e+01 -5.713523e-10 2.213698e-10 -5.713523e-10 1.202394e+01 -1.272834e-12 2.213698e-10 -1.272834e-12 1.202394e+01" pbc="T T T"
O 1.162890e+00 -2.783548e-12 -2.947362e-12 5.584967e-01 -1.985560e-13 -3.214972e-13
C 4.598498e-03 -2.615907e-12 -2.460998e-12 -6.487829e-01 2.481829e-13 4.280653e-13
O -1.160392e+00 -2.426574e-12 -1.947310e-12 9.032978e-02 -8.594084e-14 -1.658331e-13
3
Lattice="1.800000e+01 0.000000e+00 0.000000e+00 0.000000e+00 1.800000e+01 0.000000e+00 0.000000e+00 0.000000e+00 1.800000e+01" Properties=species:S:1:pos:R:3:force:R:3 energy=1.038410e-02 dipole="-4.081977e-02 6.367453e-15 1.761960e-14" pol="2.566639e+01 -2.906143e-10 7.088733e-10 -2.906143e-10 1.198003e+01 2.710473e-12 7.088733e-10 2.710473e-12 1.198003e+01" pbc="T T T"
O 1.162218e+00 -2.805059e-12 -3.008067e-12 -1.584159e-01 1.576518e-14 8.632523e-15
C -4.207443e-03 -2.559846e-12 -2.516846e-12 1.745731e+00 -3.643919e-13 -7.691639e-13
O -1.153135e+00 -2.315969e-12 -2.031615e-12 -1.587413e+00 3.440475e-13 6.646189e-13
3
Lattice="1.800000e+01 0.000000e+00 0.000000e+00 0.000000e+00 1.800000e+01 0.000000e+00 0.000000e+00 0.000000e+00 1.800000e+01" Properties=species:S:1:pos:R:3:force:R:3 energy=-1.086407e-03 dipole="-6.412454e-03 6.722677e-15 5.978220e-15" pol="2.589176e+01 5.979585e-10 3.531753e-11 5.979585e-10 1.203836e+01 1.865739e-12 3.531753e-11 1.865739e-12 1.203836e+01" pbc="T T T"
O 1.165418e+00 -2.826540e-12 -3.065175e-12 -4.377547e-02 1.778025e-14 7.388896e-14
C 1.139975e-03 -2.513991e-12 -2.578953e-12 2.653452e-01 -1.465241e-13 -2.234633e-13
O -1.160373e+00 -2.212598e-12 -2.103686e-12 -2.215876e-01 1.221252e-13 2.128468e-13
3
Lattice="1.800000e+01 0.000000e+00 0.000000e+00 0.000000e+00 1.800000e+01 0.000000e+00 0.000000e+00 0.000000e+00 1.800000e+01" Properties=species:S:1:pos:R:3:force:R:3 energy=5.901830e-03 dipole="-3.309994e-02 2.732808e-14 1.152951e-14" pol="2.614035e+01 4.400076e-10 1.001502e-10 4.400076e-10 1.210720e+01 2.722862e-12 1.001502e-10 2.722862e-12 1.210720e+01" pbc="T T T"
O 1.172420e+00 -2.921904e-12 -3.547855e-12 -1.165577e+00 8.018803e-13 2.884706e-13
C -3.180068e-03 -2.157287e-12 -3.383432e-12 1.323735e+00 -9.690723e-13 -3.233327e-13
O -1.164409e+00 -1.413448e-12 -3.234183e-12 -1.582244e-01 1.303628e-13 1.087137e-13
3
Lattice="1.800000e+01 0.000000e+00 0.000000e+00 0.000000e+00 1.800000e+01 0.000000e+00 0.000000e+00 0.000000e+00 1.800000e+01" Properties=species:S:1:pos:R:3:force:R:3 energy=2.018598e-03 dipole="3.284802e-03 -1.047591e-14 -8.110947e-15" pol="2.616926e+01 4.452377e-11 -2.605992e-10 4.452377e-11 1.211264e+01 3.085865e-12 -2.605992e-10 3.085865e-12 1.211264e+01" pbc="T T T"
O 1.170957e+00 -2.807625e-12 -3.829439e-12 -5.353750e-01 3.861778e-13 -2.286318e-14
C 2.521057e-03 -2.041160e-12 -3.804532e-12 -1.306917e-01 1.861348e-13 1.073192e-13
O -1.167342e+00 -1.259670e-12 -3.763325e-12 6.660733e-01 -4.999407e-13 -8.378314e-14
3
Lattice="1.800000e+01 0.000000e+00 0.000000e+00 0.000000e+00 1.800000e+01 0.000000e+00 0.000000e+00 0.000000e+00 1.800000e+01" Properties=species:S:1:pos:R:3:force:R:3 energy=3.205350e-03 dipole="-2.071493e-02 8.396775e-15 -9.662220e-15" pol="2.614630e+01 -2.997271e-10 7.647297e-10 -2.997271e-10 1.210739e+01 -4.805325e-13 7.647297e-10 -4.805325e-13 1.210739e+01" pbc="T T T"
O 1.171791e+00 -2.626793e-12 -4.178144e-12 -9.483408e-01 4.866652e-13 -4.601462e-14
C -1.307446e-03 -1.942837e-12 -4.179724e-12 8.272638e-01 -3.600294e-13 1.118532e-13
O -1.165410e+00 -1.249037e-12 -4.164661e-12 1.210347e-01 -1.570488e-13 -3.976245e-14
3
Lattice="1.800000e+01 0.000000e+00 0.000000e+00 0.000000e+00 1.800000e+01 0.000000e+00 0.000000e+00 0.000000e+00 1.800000e+01" Properties=species:S:1:pos:R:3:force:R:3 energy=5.326490e-03 dipole="-3.807779e-02 1.181262e-14 -5.905335e-15" pol="2.599984e+01 -4.786017e-10 -1.738079e-10 -4.786017e-10 1.207009e+01 5.249980e-13 -1.738079e-10 5.249980e-13 1.207009e+01" pbc="T T T"
O 1.169426e+00 -2.520232e-12 -4.360786e-12 -9.258184e-01 4.221761e-13 -2.654650e-14
C -4.041489e-03 -1.903170e-12 -4.368858e-12 1.553679e+00 -8.003143e-13 8.815487e-14
O -1.161039e+00 -1.284294e-12 -4.362121e-12 -6.279498e-01 2.619020e-13 -8.037472e-14
3
Lattice="1.800000e+01 0.000000e+00 0.000000e+00 0.000000e+00 1.800000e+01 0.000000e+00 0.000000e+00 0.000000e+00 1.800000e+01" Properties=species:S:1:pos:R:3:force:R:3 energy=5.414146e-03 dipole="3.677466e-02 -1.045245e-14 3.136163e-16" pol="2.582279e+01 3.766550e-10 1.836497e-10 3.766550e-10 1.202203e+01 4.137605e-12 1.836497e-10 4.137605e-12 1.202203e+01" pbc="T T T"
O 1.160988e+00 -2.313369e-12 -4.748157e-12 1.066851e+00 -3.934988e-13 3.852676e-14
C 7.658310e-03 -1.849210e-12 -4.771181e-12 -1.538201e+00 5.707551e-13 -1.966437e-14
O -1.161501e+00 -1.383774e-12 -4.798323e-12 4.714454e-01 -1.934782e-13 2.391168e-14
3
Lattice="1.800000e+01 0.000000e+00 0.000000e+00 0.000000e+00 1.800000e+01 0.000000e+00 0.000000e+00 0.000000e+00 1.800000e+01" Properties=species:S:1:pos:R:3:force:R:3 energy=3.857601e-03 dipole="-2.698647e-02 -1.745437e-15 -1.178478e-14" pol="2.574782e+01 -7.699577e-10 9.276584e-13 -7.699577e-10 1.200066e+01 -6.422507e-13 9.276584e-13 -6.422507e-13 1.200066e+01" pbc="T T T"
O 1.162985e+00 -1.891797e-12 -5.270007e-12 -9.292495e-02 -1.103933e-14 -1.413717e-14
C -2.398004e-03 -1.820472e-12 -5.562852e-12 1.140201e+00 -1.357243e-14 3.637791e-13
O -1.156188e+00 -1.743218e-12 -5.843169e-12 -1.047348e+00 6.831792e-14 -2.940012e-13
3
Lattice="1.800000e+01 0.000000e+00 0.000000e+00 0.000000e+00 1.800000e+01 0.000000e+00 0.000000e+00 0.000000e+00 1.800000e+01" Properties=species:S:1:pos:R:3:force:R:3 energy=4.119226e-03 dipole="-2.377298e-02 3.173356e-15 -1.128906e-14" pol="2.570545e+01 -2.360343e-10 -2.952584e-10 -2.360343e-10 1.198890e+01 7.689423e-13 -2.952584e-10 7.689423e-13 1.198890e+01" pbc="T T T"
O 1.161785e+00 -1.722593e-12 -5.526344e-12 7.934876e-02 8.622241e-14 -4.475109e-14
C -1.950275e-03 -1.821283e-12 -6.010520e-12 1.010309e+00 6.663136e-14 4.308747e-13
O -1.155484e+00 -1.924574e-12 -6.488266e-12 -1.089721e+00 -9.763483e-14 -4.709543e-13
3
Lattice="1.800000e+01 0.000000e+00 0.000000e+00 0.000000e+00 1.800000e+01 0.000000e+00 0.000000e+00 0.000000e+00 1.800000e+01" Properties=species:S:1:pos:R:3:force:R:3 energy=2.088157e-03 dipole="-2.130041e-02 1.010142e-14 -3.830051e-15" pol="2.608786e+01 7.877868e-11 1.065818e-10 7.877868e-11 1.209180e+01 -2.605540e-12 1.065818e-10 -2.605540e-12 1.209180e+01" pbc="T T T"
O 1.170288e+00 -1.655314e-12 -5.606402e-12 -8.202423e-01 -3.838913e-15 -3.434339e-13
C -1.616790e-03 -1.815749e-12 -6.124933e-12 8.577009e-01 1.666717e-14 3.283859e-13
O -1.164286e+00 -1.992007e-12 -6.651794e-12 -3.750673e-02 1.262841e-13 1.240831e-14
3
Lattice="1.800000e+01 0.000000e+00 0.000000e+00 0.000000e+00 1.800000e+01 0.000000e+00 0.000000e+00 0.000000e+00 1.800000e+01" Properties=species:S:1:pos:R:3:force:R:3 energy=2.361308e-03 dipole="-3.476166e-03 3.694285e-16 3.897139e-15" pol="2.567644e+01 1.841355e-10 9.749759e-12 1.841355e-10 1.198016e+01 1.737129e-12 9.749759e-12 1.737129e-12 1.198016e+01" pbc="T T T"
O 1.159922e+00 -1.489377e-12 -5.734589e-12 5.736656e-01 9.013228e-14 2.958859e-13
C 1.167127e-03 -1.806827e-12 -6.329515e-12 1.482600e-01 7.883427e-14 3.542117e-16
O -1.156097e+00 -2.123614e-12 -6.937576e-12 -7.219352e-01 -1.490643e-13 -4.483599e-13
3
Lattice="1.800000e+01 0.000000e+00 0.000000e+00 0.000000e+00 1.800000e+01 0.000000e+00 0.000000e+00 0.000000e+00 1.800000e+01" Properties=species:S:1:pos:R:3:force:R:3 energy=4.200827e-03 dipole="3.038618e-02 2.180887e-14 3.144292e-14" pol="2.609303e+01 -4.949826e-10 5.096701e-10 -4.949826e-10 1.209414e+01 -2.618292e-12 5.096701e-10 -2.618292e-12 1.209414e+01" pbc="T T T"
O 1.167247e+00 -1.360406e-12 -5.834738e-12 2.191889e-01 1.733703e-13 1.640958e-13
C 6.468780e-03 -1.777430e-12 -6.486936e-12 -1.223153e+00 -6.127423e-13 -7.352684e-13
O -1.167486e+00 -2.220538e-12 -7.160696e-12 1.004030e+00 4.567997e-13 5.773172e-13
3
Lattice="1.800000e+01 0.000000e+00 0.000000e+00 0.000000e+00 1.800000e+01 0.000000e+00 0.000000e+00 0.000000e+00 1.800000e+01" Properties=species:S:1:pos:R:3:force:R:3 energy=1.685717e-03 dipole="-1.467621e-02 -2.443379e-15 -1.146792e-14" pol="2.573917e+01 -3.664287e-10 1.012570e-10 -3.664287e-10 1.199747e+01 -4.144312e-12 1.012570e-10 -4.144312e-12 1.199747e+01" pbc="T T T"
O 1.161920e+00 -1.178063e-12 -6.028208e-12 1.770770e-01 1.369505e-13 1.412894e-13
C -6.554780e-04 -1.701906e-12 -6.729534e-12 6.205929e-01 1.925842e-13 4.075494e-13
O -1.156927e+00 -2.236130e-12 -7.424570e-12 -7.977109e-01 -3.246527e-13 -5.222874e-13
3
Lattice="1.800000e+01 0.000000e+00 0.000000e+00 0.000000e+00 1.800000e+01 0.000000e+00 0.000000e+00 0.000000e+00 1.800000e+01" Properties=species:S:1:pos:R:3:force:R:3 energy=9.565637e-03 dipole="-3.913692e-02 -2.052167e-14 -1.105393e-14" pol="2.567241e+01 8.367839e-10 -5.739309e-10 8.367839e-10 1.198146e+01 2.495057e-12 -5.739309e-10 2.495057e-12 1.198146e+01" pbc="T T T"
O 1.161689e+00 -9.216124e-13 -6.293969e-12 -1.408502e-01 -1.576618e-14 -7.407490e-14
C -4.522375e-03 -1.557877e-12 -6.949367e-12 1.672183e+00 8.409275e-13 7.859013e-13
O -1.153955e+00 -2.191610e-12 -7.619805e-12 -1.531428e+00 -8.081910e-13 -7.816430e-13
3
Lattice="1.800000e+01 0.000000e+00 0.000000e+00 0.000000e+00 1.800000e+01 0.000000e+00 0.000000e+00 0.000000e+00 1.800000e+01" Properties=species:S:1:pos:R:3:force:R:3 energy=1.134747e-02 dipole="4.129116e-02 3.449618e-14 3.621801e-14" pol="2.624285e+01 8.548190e-10 -1.395784e-09 8.548190e-10 1.213603e+01 6.498863e-12 -1.395784e-09 6.498863e-12 1.213603e+01" pbc="T T T"
O 1.169756e+00 -8.074663e-13 -6.419367e-12 7.903348e-02 1.260043e-13 1.293130e-13
C 8.086416e-03 -1.455987e-12 -7.029425e-12 -1.628518e+00 -1.105628e-12 -1.168824e-12
O -1.171560e+00 -2.138386e-12 -7.687808e-12 1.549547e+00 9.464990e-13 9.923069e-13
3
Lattice="1.800000e+01 0.000000e+00 0.000000e+00 0.000000e+00 1.800000e+01 0.000000e+00 0.000000e+00 0.000000e+00 1.800000e+01" Properties=species:S:1:pos:R:3:force:R:3 energy=-1.198441e-03 dipole="-5.332247e-03 -2.696985e-15 -1.968725e-14" pol="2.591097e+01 -4.461201e-10 4.010580e-11 -4.461201e-10 1.204351e+01 5.461415e-13 4.010580e-11 5.461415e-13 1.204351e+01" pbc="T T T"
O 1.165049e+00 -3.206316e-13 -6.833218e-12 -7.028742e-02 -1.884370e-15 -1.431276e-13
C 5.671274e-04 -8.789857e-13 -7.391213e-12 2.200446e-01 1.070968e-13 4.406555e-13
O -1.161614e+00 -1.436087e-12 -7.906346e-12 -1.497719e-01 -1.601671e-13 -3.259001e-13
3
Lattice="1.800000e+01 0.000000e+00 0.000000e+00 0.000000e+00 1.800000e+01 0.000000e+00 0.000000e+00 0.000000e+00 1.800000e+01" Properties=species:S:1:pos:R:3:force:R:3 energy=1.610289e-03 dipole="-2.447104e-02 -1.581443e-14 -2.389320e-14" pol="2.600197e+01 -3.530216e-11 -1.081073e-10 -3.530216e-11 1.206903e+01 1.321141e-13 -1.081073e-10 1.321141e-13 1.206903e+01" pbc="T T T"
O 1.168163e+00 -2.273362e-13 -6.847355e-12 -6.739720e-01 -4.217318e-13 -4.711280e-13
C -2.473012e-03 -7.410731e-13 -7.412445e-12 9.974923e-01 5.160081e-13 7.369868e-13
O -1.162524e+00 -1.239232e-12 -7.945247e-12 -3.235811e-01 -1.838057e-13 -2.829028e-13
3
Lattice="1.800000e+01 0.000000e+00 0.000000e+00 0.000000e+00 1.800000e+01 0.000000e+00 0.000000e+00 0.000000e+00 1.800000e+01" Properties=species:S:1:pos:R:3:force:R:3 energy=4.544475e-03 dipole="-3.002808e-02 -2.335171e-15 3.112915e-15" pol="2.575303e+01 -4.246453e-10 2.981662e-10 -4.246453e-10 1.200236e+01 1.434787e-12 2.981662e-10 1.434787e-12 1.200236e+01" pbc="T T T"
O 1.162774e+00 -6.702762e-14 -6.840946e-12 -1.661949e-01 -1.190934e-13 -1.452180e-14
C -3.370327e-03 -4.625758e-13 -7.399353e-12 1.267949e+00 4.709001e-13 3.700577e-13
O -1.156613e+00 -8.525876e-13 -7.991828e-12 -1.101834e+00 -3.629522e-13 -5.008786e-13
3
Lattice="1.800000e+01 0.000000e+00 0.000000e+00 0.000000e+00 1.800000e+01 0.000000e+00 0.000000e+00 0.000000e+00 1.800000e+01" Properties=species:S:1:pos:R:3:force:R:3 energy=1.130675e-02 dipole="4.532251e-02 1.275749e-14 -6.573860e-15" pol="2.619341e+01 2.718870e-10 -1.169677e-10 2.718870e-10 1.212349e+01 8.969507e-13 -1.169677e-10 8.969507e-13 1.212349e+01" pbc="T T T"
O 1.168142e+00 -3.048382e-14 -6.812684e-12 2.921070e-01 8.205425e-14 -7.055452e-14
C 8.468993e-03 -3.744836e-13 -7.428344e-12 -1.800536e+00 -4.856208e-13 -4.750412e-13
O -1.170910e+00 -7.210155e-13 -7.995461e-12 1.508505e+00 3.944809e-13 4.624610e-13
3
Lattice="1.800000e+01 0.000000e+00 0.000000e+00 0.000000e+00 1.800000e+01 0.000000e+00 0.000000e+00 0.000000e+00 1.800000e+01" Properties=species:S:1:pos:R:3:force:R:3 energy=4.457344e-03 dipole="-3.610851e-02 -4.301668e-15 -4.631160e-14" pol="2.593061e+01 -4.403348e-10 -4.437711e-10 -4.403348e-10 1.205113e+01 -2.366344e-12 -4.437711e-10 -2.366344e-12 1.205113e+01" pbc="T T T"
O 1.167094e+00 8.007615e-16 -6.794460e-12 -7.225314e-01 -1.461690e-13 -4.466487e-13
C -4.384378e-03 -2.524169e-13 -7.429851e-12 1.487564e+00 3.161068e-13 1.167500e-12
O -1.160274e+00 -5.053667e-13 -8.005904e-12 -7.651228e-01 -1.508470e-13 -5.325442e-13
3
Lattice="1.800000e+01 0.000000e+00 0.000000e+00 0.000000e+00 1.800000e+01 0.000000e+00 0.000000e+00 0.000000e+00 1.800000e+01" Properties=species:S:1:pos:R:3:force:R:3 energy=3.377640e-03 dipole="6.800535e-03 5.375718e-15 -1.787063e-15" pol="2.564896e+01 -2.997204e-11 -1.508332e-10 -2.997204e-11 1.197276e+01 2.278060e-12 -1.508332e-10 2.278060e-12 1.197276e+01" pbc="T T T"
O 1.158242e+00 3.093985e-14 -6.777878e-12 8.672947e-01 1.235648e-13 3.473314e-13
C 2.317965e-03 -1.265866e-13 -7.402824e-12 -2.911963e-01 -1.263394e-13 2.456213e-14
O -1.156520e+00 -2.971165e-13 -8.010848e-12 -5.760800e-01 -1.322429e-14 -3.910604e-13
3
Lattice="1.800000e+01 0.000000e+00 0.000000e+00 0.000000e+00 1.800000e+01 0.000000e+00 0.000000e+00 0.000000e+00 1.800000e+01" Properties=species:S:1:pos:R:3:force:R:3 energy=4.391847e-03 dipole="2.331439e-02 -1.064435e-14 9.431361e-15" pol="2.569176e+01 5.879671e-10 -3.374287e-10 5.879671e-10 1.198516e+01 -5.819133e-13 -3.374287e-10 -5.819133e-13 1.198516e+01" pbc="T T T"
O 1.158158e+00 2.065887e-13 -6.723990e-12 1.116522e+00 -6.363344e-14 5.724990e-13
C 4.833849e-03 2.140463e-13 -7.349239e-12 -9.927120e-01 1.107394e-13 -4.924349e-13
O -1.158491e+00 2.380967e-13 -7.973754e-12 -1.237475e-01 -4.109865e-14 -1.209810e-13
3
Lattice="1.800000e+01 0.000000e+00 0.000000e+00 0.000000e+00 1.800000e+01 0.000000e+00 0.000000e+00 0.000000e+00 1.800000e+01" Properties=species:S:1:pos:R:3:force:R:3 energy=1.097841e-02 dipole="4.034246e-02 6.372180e-15 1.309481e-14" pol="2.564321e+01 -1.092969e-11 3.156893e-10 -1.092969e-11 1.197365e+01 9.326896e-13 3.156893e-10 9.326896e-13 1.197365e+01" pbc="T T T"
O 1.155977e+00 2.427378e-13 -6.708261e-12 1.640736e+00 -1.234620e-13 7.200295e-13
C 7.466197e-03 3.068363e-13 -7.333865e-12 -1.730893e+00 -1.872455e-14 -8.127144e-13
O -1.158327e+00 3.563160e-13 -7.952940e-12 9.025322e-02 2.590365e-14 -4.718455e-14
3
Lattice="1.800000e+01 0.000000e+00 0.000000e+00 0.000000e+00 1.800000e+01 0.000000e+00 0.000000e+00 0.000000e+00 1.800000e+01" Properties=species:S:1:pos:R:3:force:R:3 energy=3.465547e-03 dipole="2.769450e-02 -4.626423e-15 -1.290494e-14" pol="2.608951e+01 2.195177e-10 -9.948012e-10 2.195177e-10 1.209288e+01 -7.174757e-13 -9.948012e-10 -7.174757e-13 1.209288e+01" pbc="T T T"
O 1.166809e+00 3.063619e-13 -6.664908e-12 1.699922e-01 -3.596889e-14 -1.934473e-13
C 5.513236e-03 4.843985e-13 -7.301933e-12 -1.115210e+00 1.679440e-13 -1.145977e-13
O -1.167791e+00 6.667240e-13 -7.890264e-12 9.452786e-01 -1.460295e-13 2.490979e-13
3
Lattice="1.800000e+01 0.000000e+00 0.000000e+00 0.000000e+00 1.800000e+01 0.000000e+00 0.000000e+00 0.000000e+00 1.800000e+01" Properties=species:S:1:pos:R:3:force:R:3 energy=2.960888e-03 dipole="1.875611e-02 -1.289872e-14 2.966807e-14" pol="2.571201e+01 -4.195429e-11 7.837188e-10 -4.195429e-11 1.199034e+01 -7.519831e-13 7.837188e-10 -7.519831e-13 1.199034e+01" pbc="T T T"
O 1.158791e+00 3.786685e-13 -6.637899e-12 9.602010e-01 -4.438775e-13 5.321441e-13
C 4.018862e-03 7.857895e-13 -7.173888e-12 -7.962363e-01 3.448949e-13 -5.895808e-13
O -1.158804e+00 1.211268e-12 -7.752669e-12 -1.639133e-01 1.059022e-14 5.615088e-14
3
Lattice="1.800000e+01 0.000000e+00 0.000000e+00 0.000000e+00 1.800000e+01 0.000000e+00 0.000000e+00 0.000000e+00 1.800000e+01" Properties=species:S:1:pos:R:3:force:R:3 energy=1.061484e-02 dipole="-4.076891e-02 3.009102e-14 1.096971e-16" pol="2.565870e+01 -3.979158e-10 -2.554624e-10 -3.979158e-10 1.197793e+01 -4.192060e-12 -2.554624e-10 -4.192060e-12 1.197793e+01" pbc="T T T"
O 1.160716e+00 1.120372e-12 -6.462733e-12 -1.379369e-01 2.321795e-13 1.112034e-13
C -5.521841e-03 1.888572e-12 -6.486976e-12 1.745434e+00 -1.218029e-12 -3.122361e-14
O -1.154288e+00 2.642653e-12 -6.517792e-12 -1.607594e+00 1.183226e-12 -7.146091e-14
3
Lattice="1.800000e+01 0.000000e+00 0.000000e+00 0.000000e+00 1.800000e+01 0.000000e+00 0.000000e+00 0.000000e+00 1.800000e+01" Properties=species:S:1:pos:R:3:force:R:3 energy=6.930660e-03 dipole="-3.166480e-02 1.387086e-14 3.574634e-14" pol="2.619537e+01 1.921800e-10 -6.036182e-10 1.921800e-10 1.212175e+01 1.386088e-13 -6.036182e-10 1.386088e-13 1.212175e+01" pbc="T T T"
O 1.172342e+00 1.263570e-12 -6.442229e-12 -1.267283e+00 7.255974e-13 2.553259e-13
C -4.196140e-03 1.967933e-12 -6.383193e-12 1.256465e+00 -5.988026e-13 -5.601486e-13
O -1.166966e+00 2.686501e-12 -6.395625e-12 1.076192e-02 -1.606854e-13 1.686080e-13
3
Lattice="1.800000e+01 0.000000e+00 0.000000e+00 0.000000e+00 1.800000e+01 0.000000e+00 0.000000e+00 0.000000e+00 1.800000e+01" Properties=species:S:1:pos:R:3:force:R:3 energy=9.452699e-04 dipole="-2.259711e-02 1.920457e-14 -7.634661e-15" pol="2.591418e+01 -3.680529e-10 1.416399e-10 -3.680529e-10 1.204524e+01 -1.277921e-12 1.416399e-10 -1.277921e-12 1.204524e+01" pbc="T T T"
O 1.165472e+00 1.521322e-12 -6.390607e-12 -4.228290e-01 2.455584e-13 1.416381e-14
C -2.773178e-03 2.125443e-12 -6.280584e-12 9.324980e-01 -5.919591e-13 2.151227e-14
O -1.161266e+00 2.711979e-12 -6.156504e-12 -5.097296e-01 2.683599e-13 1.070638e-13
3
Lattice="1.800000e+01 0.000000e+00 0.000000e+00 0.000000e+00 1.800000e+01 0.000000e+00 0.000000e+00 0.000000e+00 1.800000e+01" Properties=species:S:1:pos:R:3:force:R:3 energy=4.348322e-03 dipole="3.229739e-02 -5.362925e-15 -3.800540e-14" pol="2.579908e+01 -7.757632e-10 2.863306e-11 -7.757632e-10 1.201508e+01 7.851985e-13 2.863306e-11 7.851985e-13 1.201508e+01" pbc="T T T"
O 1.159538e+00 1.937534e-12 -6.367339e-12 1.029057e+00 -2.629911e-13 -4.478855e-13
C 5.756434e-03 2.346050e-12 -6.080305e-12 -1.355116e+00 4.023622e-13 7.334883e-13
O -1.161919e+00 2.748690e-12 -5.733021e-12 3.261447e-01 -1.838376e-14 -3.370718e-13
3
Lattice="1.800000e+01 0.000000e+00 0.000000e+00 0.000000e+00 1.800000e+01 0.000000e+00 0.000000e+00 0.000000e+00 1.800000e+01" Properties=species:S:1:pos:R:3:force:R:3 energy=7.079554e-03 dipole="2.825968e-02 -7.481365e-15 6.276142e-15" pol="2.564360e+01 5.204763e-10 3.419226e-10 5.204763e-10 1.197247e+01 -3.796201e-12 3.419226e-10 -3.796201e-12 1.197247e+01" pbc="T T T"
O 1.156218e+00 2.243576e-12 -6.348096e-12 1.360073e+00 -3.252914e-13 -3.852433e-13
C 5.059605e-03 2.485994e-12 -5.912528e-12 -1.211685e+00 2.143187e-13 2.411188e-13
O -1.158206e+00 2.730367e-12 -5.503664e-12 -1.483163e-01 -1.772224e-16 1.957213e-13
3
Lattice="1.800000e+01 0.000000e+00 0.000000e+00 0.000000e+00 1.800000e+01 0.000000e+00 0.000000e+00 0.000000e+00 1.800000e+01" Properties=species:S:1:pos:R:3:force:R:3 energy=1.565373e-03 dipole="1.457792e-02 6.071508e-15 -9.709565e-15" pol="2.611442e+01 1.086094e-10 6.395306e-10 1.086094e-10 1.209841e+01 3.051689e-12 6.395306e-10 3.051689e-12 1.209841e+01" pbc="T T T"
O 1.167662e+00 2.448675e-12 -6.307941e-12 -1.700531e-01 1.265485e-13 7.459029e-14
C 2.921787e-03 2.583630e-12 -5.839779e-12 -5.846891e-01 -8.488634e-14 2.554494e-13
O -1.168143e+00 2.702498e-12 -5.361484e-12 7.547742e-01 -8.369575e-15 -3.168930e-13
3
Lattice="1.800000e+01 0.000000e+00 0.000000e+00 0.000000e+00 1.800000e+01 0.000000e+00 0.000000e+00 0.000000e+00 1.800000e+01" Properties=species:S:1:pos:R:3:force:R:3 energy=4.951055e-03 dipole="-3.726700e-02 -3.776572e-15 5.305494e-15" pol="2.589138e+01 -9.033605e-10 5.661041e-10 -9.033605e-10 1.204067e+01 -1.100263e-12 5.661041e-10 -1.100263e-12 1.204067e+01" pbc="T T T"
O 1.165566e+00 2.681978e-12 -6.251818e-12 -6.491165e-01 -5.629382e-14 2.269594e-13
C -5.262315e-03 2.695060e-12 -5.741884e-12 1.543884e+00 6.243714e-14 -5.206408e-13
O -1.160019e+00 2.716869e-12 -5.217977e-12 -8.948622e-01 -1.335504e-14 3.807100e-13
3
Lattice="1.800000e+01 0.000000e+00 0.000000e+00 0.000000e+00 1.800000e+01 0.000000e+00 0.000000e+00 0.000000e+00 1.800000e+01" Properties=species:S:1:pos:R:3:force:R:3 energy=3.605174e-03 dipole="4.841575e-03 1.955325e-15 -1.514513e-14" pol="2.622084e+01 4.154843e-10 -4.779110e-11 4.154843e-10 1.212641e+01 1.528980e-12 -4.779110e-11 1.528980e-12 1.212641e+01" pbc="T T T"
O 1.170545e+00 2.923782e-12 -6.216130e-12 -6.289611e-01 6.201953e-14 3.075043e-13
C 1.293775e-03 2.841066e-12 -5.651060e-12 -1.912461e-01 -1.639153e-13 1.702395e-13
O -1.170064e+00 2.738731e-12 -5.069291e-12 8.202158e-01 1.258349e-13 -4.186371e-13
3
Lattice="1.800000e+01 0.000000e+00 0.000000e+00 0.000000e+00 1.800000e+01 0.000000e+00 0.000000e+00 0.000000e+00 1.800000e+01" Properties=species:S:1:pos:R:3:force:R:3 energy=3.376714e-03 dipole="2.948223e-02 1.955955e-16 -2.183689e-15" pol="2.581117e+01 -2.236107e-10 2.357790e-10 -2.236107e-10 1.201806e+01 -2.418299e-12 2.357790e-10 -2.418299e-12 1.201806e+01" pbc="T T T"
O 1.159760e+00 3.230302e-12 -6.203784e-12 9.333542e-01 1.782595e-13 -2.544224e-13
C 5.090310e-03 2.986693e-12 -5.571712e-12 -1.234733e+00 -1.258172e-13 4.393375e-13
O -1.162267e+00 2.751503e-12 -4.962855e-12 3.014585e-01 1.285655e-14 -1.731757e-14
3
Lattice="1.800000e+01 0.000000e+00 0.000000e+00 0.000000e+00 1.800000e+01 0.000000e+00 0.000000e+00 0.000000e+00 1.800000e+01" Properties=species:S:1:pos:R:3:force:R:3 energy=1.108169e-02 dipole="4.191135e-02 2.047732e-14 -2.484676e-14" pol="2.622800e+01 -3.221304e-11 8.454200e-10 -3.221304e-11 1.213215e+01 -1.435207e-12 8.454200e-10 -1.435207e-12 1.213215e+01" pbc="T T T"
O 1.168270e+00 3.512174e-12 -6.190421e-12 1.297556e-01 8.117837e-14 -2.385999e-14
C 7.066964e-03 3.147737e-12 -5.543237e-12 -1.656511e+00 -6.343602e-13 9.185844e-13
O -1.172375e+00 2.761792e-12 -4.883730e-12 1.526821e+00 5.697116e-13 -8.304285e-13
3
Lattice="1.800000e+01 0.000000e+00 0.000000e+00 0.000000e+00 1.800000e+01 0.000000e+00 0.000000e+00 0.000000e+00 1.800000e+01" Properties=species:S:1:pos:R:3:force:R:3 energy=9.489666e-03 dipole="4.313583e-02 8.201304e-15 -2.378124e-14" pol="2.615457e+01 -1.979820e-11 2.459521e-11 -1.979820e-11 1.211262e+01 2.180744e-12 2.459521e-11 2.180744e-12 1.211262e+01" pbc="T T T"
O 1.166535e+00 3.617074e-12 -6.181832e-12 3.422123e-01 9.564478e-14 -1.268854e-13
C 7.229547e-03 3.200116e-12 -5.524607e-12 -1.722767e+00 -5.168904e-13 9.816084e-13
O -1.170811e+00 2.783767e-12 -4.860570e-12 1.380634e+00 4.647666e-13 -7.825144e-13
3
Lattice="1.800000e+01 0.000000e+00 0.000000e+00 0.000000e+00 1.800000e+01 0.000000e+00 0.000000e+00 0.000000e+00 1.800000e+01" Properties=species:S:1:pos:R:3:force:R:3 energy=1.069465e-03 dipole="1.585463e-02 1.141080e-14 1.714533e-14" pol="2.577876e+01 1.824000e-10 5.788501e-10 1.824000e-10 1.200824e+01 -3.500966e-13 5.788501e-10 -3.500966e-13 1.200824e+01" pbc="T T T"
O 1.159707e+00 4.213371e-12 -6.052195e-12 7.182804e-01 3.908785e-13 -1.858226e-13
C 2.795184e-03 3.629768e-12 -5.422324e-12 -6.667158e-01 -3.520082e-13 1.767960e-14
O -1.160934e+00 3.039265e-12 -4.831952e-12 -5.152001e-02 -1.558010e-14 2.381719e-13
3
Lattice="1.800000e+01 0.000000e+00 0.000000e+00 0.000000e+00 1.800000e+01 0.000000e+00 0.000000e+00 0.000000e+00 1.800000e+01" Properties=species:S:1:pos:R:3:force:R:3 energy=1.667696e-03 dipole="-5.571270e-03 5.324038e-16 -1.696274e-14" pol="2.570457e+01 -9.678140e-11 -3.133699e-10 -9.678140e-11 1.198781e+01 -6.429630e-13 -3.133699e-10 -6.429630e-13 1.198781e+01" pbc="T T T"
O 1.159246e+00 4.473359e-12 -5.979090e-12 4.555230e-01 2.024811e-13 -3.305751e-13
C -5.976168e-04 3.825914e-12 -5.429499e-12 2.366934e-01 8.937292e-14 8.742781e-14
O -1.158051e+00 3.168641e-12 -4.852390e-12 -6.922321e-01 -3.095190e-13 2.364385e-13
3
Lattice="1.800000e+01 0.000000e+00 0.000000e+00 0.000000e+00 1.800000e+01 0.000000e+00 0.000000e+00 0.000000e+00 1.800000e+01" Properties=species:S:1:pos:R:3:force:R:3 energy=-8.377522e-04 dipole="3.473035e-03 5.335371e-15 -2.823675e-14" pol="2.601505e+01 9.899156e-11 5.306488e-10 9.899156e-11 1.207142e+01 3.114397e-12 5.306488e-10 3.114397e-12 1.207142e+01" pbc="T T T"
O 1.165711e+00 4.703660e-12 -5.930429e-12 -1.516565e-01 -7.611898e-14 -9.769158e-14
C 7.802681e-04 4.014230e-12 -5.434943e-12 -1.412233e-01 -8.513694e-14 4.521329e-13
O -1.165653e+00 3.321833e-12 -4.885543e-12 2.928886e-01 1.522254e-13 -3.715529e-13
3
Lattice="1.800000e+01 0.000000e+00 0.000000e+00 0.000000e+00 1.800000e+01 0.000000e+00 0.000000e+00 0.000000e+00 1.800000e+01" Properties=species:S:1:pos:R:3:force:R:3 energy=1.501070e-03 dipole="2.441065e-02 1.860801e-14 -1.715286e-15" pol="2.598881e+01 -2.993176e-10 -3.641330e-10 -2.993176e-10 1.206549e+01 2.861713e-12 -3.641330e-10 2.861713e-12 1.206549e+01" pbc="T T T"
O 1.163783e+00 4.985780e-12 -5.878755e-12 3.560611e-01 1.619514e-13 -1.556191e-14
C 4.013761e-03 4.289035e-12 -5.431208e-12 -9.968734e-01 -6.447249e-13 2.249137e-13
O -1.166311e+00 3.578086e-12 -4.992613e-12 6.408738e-01 4.316857e-13 -1.421116e-13
3
Lattice="1.800000e+01 0.000000e+00 0.000000e+00 0.000000e+00 1.800000e+01 0.000000e+00 0.000000e+00 0.000000e+00 1.800000e+01" Properties=species:S:1:pos:R:3:force:R:3 energy=3.808604e-03 dipole="-2.209439e-02 -9.204816e-15 -1.530028e-14" pol="2.570370e+01 -3.717002e-10 -2.043209e-10 -3.717002e-10 1.198831e+01 -3.356761e-12 -2.043209e-10 -3.356761e-12 1.198831e+01" pbc="T T T"
O 1.159997e+00 5.295773e-12 -5.764094e-12 1.176607e-01 1.656861e-14 -1.968913e-13
C -3.342695e-03 4.654943e-12 -5.508188e-12 9.391472e-01 5.380442e-13 8.302695e-14
O -1.157202e+00 4.016690e-12 -5.207721e-12 -1.056868e+00 -5.396915e-13 1.132972e-13
3
Lattice="1.800000e+01 0.000000e+00 0.000000e+00 0.000000e+00 1.800000e+01 0.000000e+00 0.000000e+00 0.000000e+00 1.800000e+01" Properties=species:S:1:pos:R:3:force:R:3 energy=1.056398e-02 dipole="-3.890970e-02 -1.602662e-14 3.641161e-14" pol="2.624324e+01 9.555499e-10 -5.673661e-10 9.555499e-10 1.213571e+01 1.041515e-12 -5.673661e-10 1.041515e-12 1.213571e+01" pbc="T T T"
O 1.173006e+00 5.654047e-12 -5.687109e-12 -1.508094e+00 -6.848726e-13 4.114698e-13
C -6.146999e-03 5.139410e-12 -5.580053e-12 1.534253e+00 6.898528e-13 -6.559315e-13
O -1.168359e+00 4.625217e-12 -5.545678e-12 -2.621837e-02 6.826130e-15 2.506879e-13
3
Lattice="1.800000e+01 0.000000e+00 0.000000e+00 0.000000e+00 1.800000e+01 0.000000e+00 0.000000e+00 0.000000e+00 1.800000e+01" Properties=species:S:1:pos:R:3:force:R:3 energy=1.702507e-03 dipole="-1.228959e-02 1.706683e-15 1.336444e-14" pol="2.572546e+01 -1.882048e-10 -1.245949e-10 -1.882048e-10 1.199366e+01 1.000427e-12 -1.245949e-10 1.000427e-12 1.199366e+01" pbc="T T T"
O 1.159740e+00 6.066535e-12 -5.674207e-12 2.614385e-01 5.020162e-14 1.789038e-13
C -2.015206e-03 5.785187e-12 -5.770620e-12 5.206496e-01 1.034622e-13 -1.630007e-13
O -1.158493e+00 5.499039e-12 -5.896390e-12 -7.821224e-01 -2.328650e-13 3.564202e-15
3
Lattice="1.800000e+01 0.000000e+00 0.000000e+00 0.000000e+00 1.800000e+01 0.000000e+00 0.000000e+00 0.000000e+00 1.800000e+01" Properties=species:S:1:pos:R:3:force:R:3 energy=5.770171e-03 dipole="-3.972933e-02 -7.939703e-15 1.781189e-14" pol="2.589755e+01 5.439552e-10 7.472874e-11 5.439552e-10 1.204268e+01 2.153515e-12 7.472874e-11 2.153515e-12 1.204268e+01" pbc="T T T"
O 1.165104e+00 6.262251e-12 -5.622177e-12 -7.105988e-01 -1.954700e-14 -4.193269e-14
C -6.383073e-03 6.149042e-12 -5.845190e-12 1.644711e+00 1.132579e-13 1.354121e-14
O -1.160733e+00 6.031026e-12 -6.113630e-12 -9.342113e-01 -1.218050e-13 -1.601765e-13
3
Lattice="1.800000e+01 0.000000e+00 0.000000e+00 0.000000e+00 1.800000e+01 0.000000e+00 0.000000e+00 0.000000e+00 1.800000e+01" Properties=species:S:1:pos:R:3:force:R:3 energy=1.773887e-03 dipole="7.173133e-03 -3.293147e-15 -2.387039e-15" pol="2.615327e+01 1.674241e-11 2.022091e-10 1.674241e-11 1.210846e+01 -2.155525e-12 2.022091e-10 -2.155525e-12 1.210846e+01" pbc="T T T"
O 1.171092e+00 6.133898e-17 2.635522e-18 -4.179565e-01 8.694768e-14 2.221133e-15
C 3.861939e-03 4.850197e-17 -2.247024e-17 -2.860777e-01 -2.689749e-14 4.071393e-14
O -1.166483e+00 1.456315e-16 -2.700339e-17 7.040489e-01 -8.409385e-15 1.415723e-14
3
Lattice="1.800000e+01 0.000000e+00 0.000000e+00 0.000000e+00 1.800000e+01 0.000000e+00 0.000000e+00 0.000000e+00 1.800000e+01" Properties=species:S:1:pos:R:3:force:R:3 energy=4.465314e-03 dipole="3.108455e-02 3.211380e-16 -4.336645e-16" pol="2.577190e+01 -5.834286e-10 1.498381e-10 -5.834286e-10 1.200758e+01 4.414716e-13 1.498381e-10 4.414716e-13 1.200758e+01" pbc="T T T"
O 1.161022e+00 -7.398276e-16 -2.270911e-15 1.074794e+00 -2.098373e-14 -6.188550e-15
C 7.586646e-03 1.373239e-15 -7.580791e-16 -1.309146e+00 4.595384e-15 1.301791e-14
O -1.159212e+00 1.757191e-15 -1.347794e-15 2.344344e-01 1.420178e-14 5.694679e-14
3
Lattice="1.800000e+01 0.000000e+00 0.000000e+00 0.000000e+00 1.800000e+01 0.000000e+00 0.000000e+00 0.000000e+00 1.800000e+01" Properties=species:S:1:pos:R:3:force:R:3 energy=3.872381e-03 dipole="-4.294480e-03 1.163834e-16 -1.935711e-15" pol="2.563057e+01 -2.299370e-11 1.986276e-10 -2.299370e-11 1.196773e+01 2.228627e-12 1.986276e-10 2.228627e-12 1.196773e+01" pbc="T T T"
O 1.159943e+00 9.244415e-16 -3.833348e-15 6.779195e-01 -1.018968e-15 -3.365433e-14
C 2.059543e-03 1.656130e-15 -2.615632e-15 1.843544e-01 -4.019615e-15 -2.274965e-14
O -1.153984e+00 2.578020e-15 -7.814784e-16 -8.622854e-01 -5.190009e-14 -3.490736e-14
3
Lattice="1.800000e+01 0.000000e+00 0.000000e+00 0.000000e+00 1.800000e+01 0.000000e+00 0.000000e+00 0.000000e+00 1.800000e+01" Properties=species:S:1:pos:R:3:force:R:3 energy=-1.384763e-04 dipole="-1.563343e-02 5.157202e-16 -1.599440e-15" pol="2.597279e+01 -7.147173e-10 2.541002e-11 -7.147173e-10 1.206052e+01 -2.536173e-12 2.541002e-11 -2.536173e-12 1.206052e+01" pbc="T T T"
O 1.168363e+00 1.597959e-14 -2.802477e-14 -4.308148e-01 -2.478327e-14 -2.105062e-14
C 2.725397e-04 1.080891e-14 -1.270247e-14 6.396872e-01 1.812153e-14 3.918368e-14
O -1.161061e+00 5.216261e-15 5.962816e-15 -2.089133e-01 -2.947194e-14 -4.131544e-14
3
Lattice="1.800000e+01 0.000000e+00 0.000000e+00 0.000000e+00 1.800000e+01 0.000000e+00 0.000000e+00 0.000000e+00 1.800000e+01" Properties=species:S:1:pos:R:3:force:R:3 energy=-1.176608e-03 dipole="-3.543721e-03 3.838624e-15 -3.656912e-15" pol="2.596945e+01 -4.356638e-10 1.393888e-10 -4.356638e-10 1.205919e+01 -2.872582e-12 1.393888e-10 -2.872582e-12 1.205919e+01" pbc="T T T"
O 1.167590e+00 3.275739e-14 -7.346967e-14 -1.807869e-01 4.720811e-14 -9.686566e-14
C 2.171300e-03 2.423857e-14 -3.370572e-14 1.450279e-01 -5.966626e-14 1.033852e-13
O -1.161716e+00 9.981786e-15 1.928374e-14 3.574956e-02 2.722750e-15 -3.165387e-14
3
Lattice="1.800000e+01 0.000000e+00 0.000000e+00 0.000000e+00 1.800000e+01 0.000000e+00 0.000000e+00 0.000000e+00 1.800000e+01" Properties=species:S:1:pos:R:3:force:R:3 energy=3.925249e-03 dipole="1.904555e-02 -2.330997e-15 2.740092e-15" pol="2.567876e+01 2.004590e-11 4.195466e-10 2.004590e-11 1.198134e+01 3.465372e-12 4.195466e-10 3.465372e-12 1.198134e+01" pbc="T T T"
O 1.159654e+00 9.848293e-14 -2.354498e-13 1.056354e+00 3.372388e-14 -1.310680e-13
C 5.697711e-03 4.700730e-14 -6.825272e-14 -8.123221e-01 -2.745893e-14 -1.135863e-14
O -1.156426e+00 1.279536e-15 8.584560e-14 -2.439807e-01 -9.473038e-14 1.244773e-13
3
Lattice="1.800000e+01 0.000000e+00 0.000000e+00 0.000000e+00 1.800000e+01 0.000000e+00 0.000000e+00 0.000000e+00 1.800000e+01" Properties=species:S:1:pos:R:3:force:R:3 energy=9.700062e-03 dipole="4.550028e-02 -2.344256e-15 -3.246557e-15" pol="2.612333e+01 5.153678e-12 5.340190e-10 5.153678e-12 1.210463e+01 -1.709878e-12 5.340190e-10 -1.709878e-12 1.210463e+01" pbc="T T T"
O 1.167991e+00 2.388408e-13 -4.989450e-13 4.746708e-01 -9.401145e-15 -4.914115e-14
C 9.906055e-03 8.260215e-14 -1.479213e-13 -1.825520e+00 -1.198555e-13 3.626265e-13
O -1.167924e+00 -6.298227e-14 1.928701e-13 1.350936e+00 1.499067e-13 -3.087912e-13
3
Lattice="1.800000e+01 0.000000e+00 0.000000e+00 0.000000e+00 1.800000e+01 0.000000e+00 0.000000e+00 0.000000e+00 1.800000e+01" Properties=species:S:1:pos:R:3:force:R:3 energy=7.928155e-04 dipole="-5.725913e-03 -9.546085e-15 1.275259e-14" pol="2.574156e+01 -2.308074e-10 -3.198036e-10 -2.308074e-10 1.199782e+01 1.244556e-12 -3.198036e-10 1.244556e-12 1.199782e+01" pbc="T T T"
O 1.162555e+00 5.244449e-13 -7.742513e-13 3.556626e-01 -1.596977e-14 -1.174099e-13
C 1.835053e-03 1.710118e-13 -2.802418e-13 2.420000e-01 2.324673e-13 -2.755095e-13
O -1.156425e+00 -1.680119e-13 1.928064e-13 -5.976788e-01 -1.689269e-13 3.525576e-13
3
Lattice="1.800000e+01 0.000000e+00 0.000000e+00 0.000000e+00 1.800000e+01 0.000000e+00 0.000000e+00 0.000000e+00 1.800000e+01" Properties=species:S:1:pos:R:3:force:R:3 energy=4.972265e-03 dipole="3.603337e-02 3.160333e-15 -9.845291e-15" pol="2.603397e+01 -1.886653e-10 -7.629822e-10 -1.886653e-10 1.207900e+01 -2.520486e-12 -7.629822e-10 -2.520486e-12 1.207900e+01" pbc="T T T"
O 1.166610e+00 6.832620e-13 -9.827831e-13 4.940333e-01 1.008769e-13 -7.311855e-14
C 8.398707e-03 2.660222e-13 -4.199606e-13 -1.463039e+00 -3.092297e-13 4.606159e-13
O -1.165413e+00 -1.354939e-13 1.222269e-13 9.690883e-01 2.924232e-13 -3.551075e-13
3
Lattice="1.800000e+01 0.000000e+00 0.000000e+00 0.000000e+00 1.800000e+01 0.000000e+00 0.000000e+00 0.000000e+00 1.800000e+01" Properties=species:S:1:pos:R:3:force:R:3 energy=6.580584e-03 dipole="2.522120e-02 3.912164e-16 -1.781722e-15" pol="2.623355e+01 1.143743e-10 -1.666886e-11 1.143743e-10 1.213115e+01 4.373752e-12 -1.666886e-11 4.373752e-12 1.213115e+01" pbc="T T T"
O 1.171769e+00 7.825095e-13 -1.240334e-12 -2.421565e-01 -1.348113e-13 3.138393e-13
C 6.719911e-03 3.851020e-13 -5.975827e-13 -9.950875e-01 -9.495189e-14 3.158840e-13
O -1.169308e+00 9.456978e-15 2.410487e-14 1.237286e+00 3.545904e-13 -4.951135e-13
3
Lattice="1.800000e+01 0.000000e+00 0.000000e+00 0.000000e+00 1.800000e+01 0.000000e+00 0.000000e+00 0.000000e+00 1.800000e+01" Properties=species:S:1:pos:R:3:force:R:3 energy=4.967110e-03 dipole="-1.784055e-02 -1.819364e-15 1.395418e-14" pol="2.563955e+01 -1.115554e-10 8.535622e-11 -1.115554e-10 1.197063e+01 -3.150954e-12 8.535622e-11 -3.150954e-12 1.197063e+01" pbc="T T T"
O 1.160920e+00 7.966063e-13 -1.547510e-12 3.707933e-01 9.927085e-14 -2.719459e-13
C -5.093378e-05 5.839336e-13 -8.865502e-13 7.651105e-01 1.014841e-13 -5.440466e-13
O -1.153379e+00 3.707937e-13 -2.393909e-13 -1.135951e+00 -1.745028e-13 6.514510e-13
3
Lattice="1.800000e+01 0.000000e+00 0.000000e+00 0.000000e+00 1.800000e+01 0.000000e+00 0.000000e+00 0.000000e+00 1.800000e+01" Properties=species:S:1:pos:R:3:force:R:3 energy=3.717685e-03 dipole="-1.911980e-02 -1.904109e-14 2.832222e-14" pol="2.617662e+01 -2.156267e-10 1.226343e-11 -2.156267e-10 1.211535e+01 -4.337499e-13 1.226343e-11 -4.337499e-13 1.211535e+01" pbc="T T T"
O 1.173148e+00 8.346652e-13 -1.677576e-12 -9.898619e-01 -1.952502e-13 7.446021e-13
C -2.929789e-04 6.727362e-13 -1.010075e-12 7.602599e-01 2.944621e-13 -7.011693e-13
O -1.165424e+00 5.410926e-13 -3.851672e-13 2.295653e-01 -1.871258e-13 5.322063e-15
3
Lattice="1.800000e+01 0.000000e+00 0.000000e+00 0.000000e+00 1.800000e+01 0.000000e+00 0.000000e+00 0.000000e+00 1.800000e+01" Properties=species:S:1:pos:R:3:force:R:3 energy=5.098056e-03 dipole="2.777514e-02 1.504256e-14 -3.732920e-14" pol="2.616397e+01 -6.791219e-10 -3.280693e-11 -6.791219e-10 1.211285e+01 2.185242e-12 -3.280693e-11 2.185242e-12 1.211285e+01" pbc="T T T"
O 1.170051e+00 1.007180e-12 -1.898976e-12 -1.559684e-02 1.467649e-13 -1.148557e-13
C 7.115134e-03 9.151162e-13 -1.345841e-12 -1.106787e+00 -3.144450e-13 8.604847e-13
O -1.167888e+00 7.951094e-13 -7.413240e-13 1.122437e+00 2.100641e-13 -7.867949e-13
3
Lattice="1.800000e+01 0.000000e+00 0.000000e+00 0.000000e+00 1.800000e+01 0.000000e+00 0.000000e+00 0.000000e+00 1.800000e+01" Properties=species:S:1:pos:R:3:force:R:3 energy=2.059893e-03 dipole="1.020580e-02 1.620051e-14 -9.371031e-15" pol="2.570253e+01 -7.122569e-10 -4.161614e-10 -7.122569e-10 1.198737e+01 -2.171172e-12 -4.161614e-10 -2.171172e-12 1.198737e+01" pbc="T T T"
O 1.160727e+00 1.150898e-12 -2.031450e-12 7.979145e-01 1.123951e-13 -3.773298e-13
C 4.319220e-03 1.029572e-12 -1.498209e-12 -4.337502e-01 -1.873491e-13 2.855556e-13
O -1.156468e+00 8.912901e-13 -9.568318e-13 -3.641359e-01 2.319960e-14 1.580623e-13
3
Lattice="1.800000e+01 0.000000e+00 0.000000e+00 0.000000e+00 1.800000e+01 0.000000e+00 0.000000e+00 0.000000e+00 1.800000e+01" Properties=species:S:1:pos:R:3:force:R:3 energy=4.457856e-03 dipole="-1.518748e-02 9.723173e-15 -9.246246e-15" pol="2.622042e+01 2.564961e-10 1.083879e-09 2.564961e-10 1.212674e+01 1.524200e-12 1.083879e-09 1.524200e-12 1.212674e+01" pbc="T T T"
O 1.173909e+00 1.611532e-12 -2.409605e-12 -1.018498e+00 -1.272472e-13 2.126332e-13
C 3.263054e-04 1.339236e-12 -1.962130e-12 6.001045e-01 -8.078793e-14 6.930548e-14
O -1.166647e+00 1.038568e-12 -1.472549e-12 4.183674e-01 2.006320e-13 -2.892447e-13
3
Lattice="1.800000e+01 0.000000e+00 0.000000e+00 0.000000e+00 1.800000e+01 0.000000e+00 0.000000e+00 0.000000e+00 1.800000e+01" Properties=species:S:1:pos:R:3:force:R:3 energy=1.300223e-03 dipole="8.600813e-03 1.189199e-14 -2.734266e-14" pol="2.612945e+01 -1.180634e-10 4.974215e-10 -1.180634e-10 1.210214e+01 -2.264578e-12 4.974215e-10 -2.264578e-12 1.210214e+01" pbc="T T T"
O 1.170469e+00 1.916940e-12 -2.654140e-12 -3.304287e-01 -1.779031e-14 5.367006e-16
C 4.084504e-03 1.557073e-12 -2.294725e-12 -3.441817e-01 -2.288660e-13 4.425908e-13
O -1.166033e+00 1.178357e-12 -1.885313e-12 6.746289e-01 2.808126e-13 -4.392263e-13
3
Lattice="1.800000e+01 0.000000e+00 0.000000e+00 0.000000e+00 1.800000e+01 0.000000e+00 0.000000e+00 0.000000e+00 1.800000e+01" Properties=species:S:1:pos:R:3:force:R:3 energy=5.257615e-03 dipole="2.078806e-02 -4.394787e-15 1.552895e-14" pol="2.621909e+01 1.386140e-10 1.694524e-10 1.386140e-10 1.212684e+01 4.271978e-12 1.694524e-10 4.271978e-12 1.212684e+01" pbc="T T T"
O 1.171725e+00 2.009688e-12 -2.735170e-12 -2.993429e-01 -1.972229e-13 3.195932e-13
C 6.016251e-03 1.621275e-12 -2.371260e-12 -8.217062e-01 -1.116699e-13 -1.202206e-13
O -1.168738e+00 1.252941e-12 -2.047641e-12 1.121085e+00 2.829986e-13 -1.624286e-13
3
Lattice="1.800000e+01 0.000000e+00 0.000000e+00 0.000000e+00 1.800000e+01 0.000000e+00 0.000000e+00 0.000000e+00 1.800000e+01" Properties=species:S:1:pos:R:3:force:R:3 energy=3.940326e-03 dipole="-3.114441e-02 5.718729e-15 -3.473210e-15" pol="2.580395e+01 -1.401287e-09 6.892278e-10 -1.401287e-09 1.201627e+01 2.626713e-12 6.892278e-10 2.626713e-12 1.201627e+01" pbc="T T T"
O 1.165401e+00 2.086263e-12 -2.787704e-12 -3.158638e-01 -2.386695e-14 4.651616e-14
C -2.142684e-03 1.723650e-12 -2.510563e-12 1.305772e+00 2.589156e-13 -2.154408e-13
O -1.156286e+00 1.336834e-12 -2.212810e-12 -9.899913e-01 -2.032149e-13 2.331814e-13
3
Lattice="1.800000e+01 0.000000e+00 0.000000e+00 0.000000e+00 1.800000e+01 0.000000e+00 0.000000e+00 0.000000e+00 1.800000e+01" Properties=species:S:1:pos:R:3:force:R:3 energy=-6.883634e-04 dipole="-7.384110e-03 -1.038648e-15 -1.800287e-14" pol="2.601137e+01 -1.984397e-10 -3.907926e-10 -1.984397e-10 1.207051e+01 -2.884159e-12 -3.907926e-10 -2.884159e-12 1.207051e+01" pbc="T T T"
O 1.168761e+00 2.183382e-12 -2.855363e-12 -3.623052e-01 -1.501960e-13 -1.099181e-13
C 1.567747e-03 1.817648e-12 -2.655680e-12 3.004485e-01 5.170336e-14 2.469187e-13
O -1.162431e+00 1.448903e-12 -2.415046e-12 6.183786e-02 -3.592249e-14 -1.901122e-13
3
Lattice="1.800000e+01 0.000000e+00 0.000000e+00 0.000000e+00 1.800000e+01 0.000000e+00 0.000000e+00 0.000000e+00 1.800000e+01" Properties=species:S:1:pos:R:3:force:R:3 energy=7.575925e-04 dipole="1.996736e-02 -5.066772e-15 -1.508627e-14" pol="2.585413e+01 -6.098478e-10 -1.800471e-10 -6.098478e-10 1.202885e+01 -8.516935e-13 -1.800471e-10 -8.516935e-13 1.202885e+01" pbc="T T T"
O 1.163573e+00 2.458945e-12 -3.252195e-12 6.093019e-01 7.949750e-14 -1.544151e-13
C 5.855192e-03 2.238643e-12 -3.231929e-12 -8.308983e-01 -1.384676e-14 2.082128e-13
O -1.160465e+00 2.034572e-12 -3.184777e-12 2.216515e-01 5.530099e-14 -9.842415e-14
3
Lattice="1.800000e+01 0.000000e+00 0.000000e+00 0.000000e+00 1.800000e+01 0.000000e+00 0.000000e+00 0.000000e+00 1.800000e+01" Properties=species:S:1:pos:R:3:force:R:3 energy=7.748277e-03 dipole="3.066754e-02 1.362391e-14 -7.271690e-15" pol="2.564349e+01 -4.897739e-10 -3.289060e-10 -4.897739e-10 1.197266e+01 -3.270137e-12 -3.289060e-10 -3.270137e-12 1.197266e+01" pbc="T T T"
O 1.158137e+00 2.609725e-12 -3.488172e-12 1.415505e+00 2.041379e-13 -2.029213e-14
C 7.505313e-03 2.478422e-12 -3.511780e-12 -1.315084e+00 -2.893012e-13 9.154990e-14
O -1.156264e+00 2.321387e-12 -3.523428e-12 -1.003446e-01 1.008266e-13 -4.882954e-14
3
Lattice="1.800000e+01 0.000000e+00 0.000000e+00 0.000000e+00 1.800000e+01 0.000000e+00 0.000000e+00 0.000000e+00 1.800000e+01" Properties=species:S:1:pos:R:3:force:R:3 energy=4.240185e-03 dipole="-1.102392e-02 1.166889e-14 -9.727173e-15" pol="2.563388e+01 7.102639e-10 5.008120e-11 7.102639e-10 1.196878e+01 2.615895e-12 5.008120e-11 2.615895e-12 1.196878e+01" pbc="T T T"
O 1.160404e+00 2.908599e-12 -3.768114e-12 5.271878e-01 9.938915e-14 4.704901e-14
C 1.011024e-03 2.801551e-12 -3.908469e-12 4.730770e-01 -8.764375e-14 2.126601e-13
O -1.153661e+00 2.674911e-12 -4.031117e-12 -1.000294e+00 -1.035194e-14 -2.175354e-13
3
Lattice="1.800000e+01 0.000000e+00 0.000000e+00 0.000000e+00 1.800000e+01 0.000000e+00 0.000000e+00 0.000000e+00 1.800000e+01" Properties=species:S:1:pos:R:3:force:R:3 energy=-8.677181e-05 dipole="1.650982e-02 -1.251478e-14 -1.718065e-15" pol="2.590173e+01 5.497209e-10 -4.834785e-10 5.497209e-10 1.204146e+01 6.505988e-13 -4.834785e-10 6.505988e-13 1.204146e+01" pbc="T T T"
O 1.164860e+00 3.024918e-12 -3.838167e-12 4.103967e-01 -4.573314e-14 8.710953e-14
C 5.316628e-03 2.891373e-12 -4.026434e-12 -6.823607e-01 1.335692e-13 1.512751e-14
O -1.161350e+00 2.784327e-12 -4.205653e-12 2.720092e-01 -1.008557e-13 -3.214605e-14
3
Lattice="1.800000e+01 0.000000e+00 0.000000e+00 0.000000e+00 1.800000e+01 0.000000e+00 0.000000e+00 0.000000e+00 1.800000e+01" Properties=species:S:1:pos:R:3:force:R:3 energy=3.382510e-03 dipole="8.507413e-04 -2.460345e-15 1.234580e-14" pol="2.564241e+01 -3.101101e-10 5.989626e-11 -3.101101e-10 1.197094e+01 7.720667e-14 5.989626e-11 7.720667e-14 1.197094e+01" pbc="T T T"
O 1.159912e+00 3.919155e-12 -4.231126e-12 7.562651e-01 6.408078e-14 2.929322e-13
C 2.859876e-03 3.613778e-12 -4.692383e-12 -3.641118e-02 6.342993e-14 -1.943656e-13
O -1.154557e+00 3.315721e-12 -5.178633e-12 -7.198516e-01 -2.406322e-13 -2.292675e-13
3
Lattice="1.800000e+01 0.000000e+00 0.000000e+00 0.000000e+00 1.800000e+01 0.000000e+00 0.000000e+00 0.000000e+00 1.800000e+01" Properties=species:S:1:pos:R:3:force:R:3 energy=2.333026e-03 dipole="-1.560199e-02 -1.928878e-14 -1.052346e-14" pol="2.614284e+01 2.845510e-10 -1.353147e-10 2.845510e-10 1.210607e+01 2.845191e-12 -1.353147e-10 2.845191e-12 1.210607e+01" pbc="T T T"
O 1.172190e+00 4.965204e-12 -4.735784e-12 -8.425608e-01 -2.900536e-13 -5.128667e-13
C 2.643548e-04 4.702329e-12 -5.454697e-12 6.232762e-01 3.647068e-13 4.396521e-13
O -1.164886e+00 4.469124e-12 -6.169719e-12 2.192521e-01 -3.362632e-14 1.049321e-13
3
Lattice="1.800000e+01 0.000000e+00 0.000000e+00 0.000000e+00 1.800000e+01 0.000000e+00 0.000000e+00 0.000000e+00 1.800000e+01" Properties=species:S:1:pos:R:3:force:R:3 energy=-1.811068e-04 dipole="-1.395657e-02 -6.248226e-15 -1.734574e-14" pol="2.585646e+01 -8.049567e-10 3.697703e-10 -8.049567e-10 1.202912e+01 -3.935254e-13 3.697703e-10 -3.935254e-13 1.202912e+01" pbc="T T T"
O 1.165635e+00 5.168558e-12 -4.883262e-12 -1.074020e-01 -1.265667e-13 -1.780883e-13
C 5.422767e-04 4.985947e-12 -5.613064e-12 5.804856e-01 2.069542e-13 5.004343e-13
O -1.158537e+00 4.819894e-12 -6.318567e-12 -4.731227e-01 -1.213739e-13 -3.892829e-13
3
Lattice="1.800000e+01 0.000000e+00 0.000000e+00 0.000000e+00 1.800000e+01 0.000000e+00 0.000000e+00 0.000000e+00 1.800000e+01" Properties=species:S:1:pos:R:3:force:R:3 energy=4.190405e-03 dipole="2.479271e-02 4.206397e-15 2.698276e-14" pol="2.571151e+01 -3.638253e-10 -1.889865e-10 -3.638253e-10 1.199063e+01 1.626136e-12 -1.889865e-10 1.626136e-12 1.199063e+01" pbc="T T T"
O 1.160044e+00 5.992679e-12 -5.396666e-12 1.096180e+00 7.762224e-14 6.413024e-13
C 6.595684e-03 5.876996e-12 -5.985089e-12 -1.052785e+00 -1.851476e-14 -7.246588e-13
O -1.157494e+00 5.766193e-12 -6.606635e-12 -4.332795e-02 -2.868638e-14 1.178499e-14
3
Lattice="1.800000e+01 0.000000e+00 0.000000e+00 0.000000e+00 1.800000e+01 0.000000e+00 0.000000e+00 0.000000e+00 1.800000e+01" Properties=species:S:1:pos:R:3:force:R:3 energy=2.941377e-03 dipole="-2.627252e-02 1.052758e-14 -8.069014e-15" pol="2.607814e+01 4.482785e-10 -3.948823e-10 4.482785e-10 1.208967e+01 -3.629603e-12 -3.948823e-10 -3.629603e-12 1.208967e+01" pbc="T T T"
O 1.171334e+00 6.512181e-12 -5.623816e-12 -8.914357e-01 -2.289473e-14 -3.680990e-13
C -1.410737e-03 6.348714e-12 -6.155173e-12 1.059576e+00 2.675125e-14 3.795198e-13
O -1.162767e+00 6.167000e-12 -6.694568e-12 -1.681993e-01 4.674524e-14 -2.439114e-14
3
Lattice="1.800000e+01 0.000000e+00 0.000000e+00 0.000000e+00 1.800000e+01 0.000000e+00 0.000000e+00 0.000000e+00 1.800000e+01" Properties=species:S:1:pos:R:3:force:R:3 energy=3.065718e-03 dipole="-2.029508e-02 7.959800e-15 -5.755011e-15" pol="2.614353e+01 1.503776e-10 6.449016e-10 1.503776e-10 1.210661e+01 7.229040e-13 6.449016e-10 7.229040e-13 1.210661e+01" pbc="T T T"
O 1.172470e+00 7.157134e-12 -5.834847e-12 -9.338025e-01 -1.769813e-13 -3.388466e-13
C -4.763568e-04 6.877387e-12 -6.303295e-12 8.108014e-01 -4.925379e-16 3.060366e-13
O -1.164610e+00 6.575928e-12 -6.771518e-12 1.229594e-01 8.028055e-14 1.412093e-14
3
Lattice="1.800000e+01 0.000000e+00 0.000000e+00 0.000000e+00 1.800000e+01 0.000000e+00 0.000000e+00 0.000000e+00 1.800000e+01" Properties=species:S:1:pos:R:3:force:R:3 energy=1.625024e-03 dipole="-2.195240e-02 -1.716531e-15 7.205288e-16" pol="2.581050e+01 -7.252375e-11 3.793187e-10 -7.252375e-11 1.201721e+01 1.579195e-12 3.793187e-10 1.579195e-12 1.201721e+01" pbc="T T T"
O 1.165042e+00 7.497853e-12 -5.946862e-12 -1.513979e-01 -1.968014e-14 -6.146192e-14
C -7.066445e-04 7.171086e-12 -6.367189e-12 9.191904e-01 1.979763e-13 2.783109e-13
O -1.157008e+00 6.833806e-12 -6.799055e-12 -7.678532e-01 -1.162194e-13 -2.363355e-13
3
Lattice="1.800000e+01 0.000000e+00 0.000000e+00 0.000000e+00 1.800000e+01 0.000000e+00 0.000000e+00 0.000000e+00 1.800000e+01" Properties=species:S:1:pos:R:3:force:R:3 energy=3.830687e-03 dipole="-8.250541e-03 1.522084e-14 -1.366502e-14" pol="2.622203e+01 6.727379e-10 -1.086311e-10 6.727379e-10 1.212682e+01 3.580124e-12 -1.086311e-10 3.580124e-12 1.212682e+01" pbc="T T T"
O 1.173545e+00 8.501657e-12 -6.439124e-12 -8.892970e-01 -1.625295e-14 -1.504246e-13
C 1.422075e-03 8.254851e-12 -6.593042e-12 3.258752e-01 -1.683268e-13 2.429293e-13
O -1.167110e+00 7.974849e-12 -6.720926e-12 5.634074e-01 2.627399e-13 -1.829618e-14
3
Lattice="1.800000e+01 0.000000e+00 0.000000e+00 0.000000e+00 1.800000e+01 0.000000e+00 0.000000e+00 0.000000e+00 1.800000e+01" Properties=species:S:1:pos:R:3:force:R:3 energy=3.857906e-03 dipole="2.209964e-03 1.634420e-14 -1.683069e-14" pol="2.623084e+01 -2.897762e-10 -8.692808e-11 -2.897762e-10 1.212904e+01 -5.189847e-12 -8.692808e-11 -5.189847e-12 1.212904e+01" pbc="T T T"
O 1.173126e+00 8.734460e-12 -6.535960e-12 -7.054114e-01 6.729116e-14 -1.487869e-13
C 3.077658e-03 8.537953e-12 -6.635150e-12 -8.715445e-02 -2.342269e-13 2.146418e-13
O -1.167933e+00 8.306407e-12 -6.702790e-12 7.925696e-01 2.572917e-13 -3.402024e-14
3
Lattice="1.800000e+01 0.000000e+00 0.000000e+00 0.000000e+00 1.800000e+01 0.000000e+00 0.000000e+00 0.000000e+00 1.800000e+01" Properties=species:S:1:pos:R:3:force:R:3 energy=7.844526e-05 dipole="8.578145e-03 1.142627e-14 -1.584209e-14" pol="2.578950e+01 -3.284054e-10 -9.264989e-11 -3.284054e-10 1.201084e+01 -1.244794e-12 -9.264989e-11 -1.244794e-12 1.201084e+01" pbc="T T T"
O 1.162800e+00 9.858100e-12 -6.716182e-12 5.327299e-01 1.232240e-13 -9.883045e-14
C 4.068600e-03 9.703759e-12 -6.764832e-12 -3.601262e-01 -1.570115e-13 2.451896e-13
O -1.158352e+00 9.531570e-12 -6.782318e-12 -1.725792e-01 4.028821e-14 -7.990953e-14
3
Lattice="1.800000e+01 0.000000e+00 0.000000e+00 0.000000e+00 1.800000e+01 0.000000e+00 0.000000e+00 0.000000e+00 1.800000e+01" Properties=species:S:1:pos:R:3:force:R:3 energy=4.895126e-03 dipole="1.610394e-02 -1.634539e-14 2.492691e-14" pol="2.623012e+01 -3.498261e-11 1.052039e-10 -3.498261e-11 1.212939e+01 5.931555e-13 1.052039e-10 5.931555e-13 1.212939e+01" pbc="T T T"
O 1.172265e+00 1.045107e-11 -6.725972e-12 -4.231870e-01 -1.764417e-13 1.456315e-13
C 5.277279e-03 1.021579e-11 -6.778509e-12 -6.354632e-01 1.806486e-13 -3.509631e-13
O -1.168720e+00 1.001385e-11 -6.879359e-12 1.058678e+00 3.200059e-14 2.793433e-13
3
Lattice="1.800000e+01 0.000000e+00 0.000000e+00 0.000000e+00 1.800000e+01 0.000000e+00 0.000000e+00 0.000000e+00 1.800000e+01" Properties=species:S:1:pos:R:3:force:R:3 energy=2.900038e-03 dipole="2.740889e-02 -1.709226e-15 2.346629e-14" pol="2.605821e+01 1.589104e-10 1.234892e-10 1.589104e-10 1.208445e+01 -2.623075e-12 1.234892e-10 -2.623075e-12 1.208445e+01" pbc="T T T"
O 1.167704e+00 1.150941e-11 -6.598159e-12 2.433155e-01 1.829223e-14 1.754638e-13
C 7.044025e-03 1.116911e-11 -6.819211e-12 -1.108571e+00 -2.150803e-13 -4.639621e-13
O -1.165491e+00 1.084388e-11 -7.078900e-12 8.653184e-01 1.991471e-13 3.371579e-13
3
Lattice="1.800000e+01 0.000000e+00 0.000000e+00 0.000000e+00 1.800000e+01 0.000000e+00 0.000000e+00 0.000000e+00 1.800000e+01" Properties=species:S:1:pos:R:3:force:R:3 energy=2.521980e-03 dipole="1.941531e-02 6.975826e-15 1.214277e-14" pol="2.573506e+01 1.828859e-10 1.767612e-11 1.828859e-10 1.199662e+01 2.702359e-12 1.767612e-11 2.702359e-12 1.199662e+01" pbc="T T T"
O 1.160910e+00 1.182028e-11 -6.537662e-12 9.129051e-01 2.266419e-13 2.822524e-13
C 5.759586e-03 1.148567e-11 -6.837664e-12 -8.215675e-01 -2.000420e-13 -2.988751e-13
O -1.157729e+00 1.114539e-11 -7.153018e-12 -9.128406e-02 8.322243e-15 2.696157e-14
3
Lattice="1.800000e+01 0.000000e+00 0.000000e+00 0.000000e+00 1.800000e+01 0.000000e+00 0.000000e+00 0.000000e+00 1.800000e+01" Properties=species:S:1:pos:R:3:force:R:3 energy=5.454883e-04 dipole="-1.640130e-02 1.179167e-14 -1.836159e-14" pol="2.581899e+01 -1.168728e-10 2.876031e-10 -1.168728e-10 1.201914e+01 1.216146e-12 2.876031e-10 1.216146e-12 1.201914e+01" pbc="T T T"
O 1.164924e+00 1.209670e-11 -6.483466e-12 -6.184683e-02 7.691431e-14 -1.200200e-13
C 1.626421e-04 1.178405e-11 -6.860991e-12 6.858191e-01 -5.079771e-14 4.236524e-13
O -1.157539e+00 1.143820e-11 -7.209386e-12 -6.240183e-01 -5.376021e-14 -3.543500e-13
3
Lattice="1.800000e+01 0.000000e+00 0.000000e+00 0.000000e+00 1.800000e+01 0.000000e+00 0.000000e+00 0.000000e+00 1.800000e+01" Properties=species:S:1:pos:R:3:force:R:3 energy=6.421013e-04 dipole="1.392308e-02 -9.657776e-15 2.352765e-14" pol="2.578857e+01 7.400716e-10 -1.677196e-10 7.400716e-10 1.201079e+01 4.224941e-13 -1.677196e-10 4.224941e-13 1.201079e+01" pbc="T T T"
O 1.162458e+00 1.257288e-11 -6.438689e-12 6.503529e-01 -2.371349e-14 3.377794e-13
C 4.905071e-03 1.228180e-11 -6.846327e-12 -5.846554e-01 9.820754e-14 -4.772594e-13
O -1.158636e+00 1.201830e-11 -7.290588e-12 -6.565818e-02 -1.302401e-13 1.872632e-13
3
Lattice="1.800000e+01 0.000000e+00 0.000000e+00 0.000000e+00 1.800000e+01 0.000000e+00 0.000000e+00 0.000000e+00 1.800000e+01" Properties=species:S:1:pos:R:3:force:R:3 energy=-3.156308e-04 dipole="6.632296e-03 -1.403909e-14 1.923996e-14" pol="2.580687e+01 -4.397046e-10 -1.830836e-10 -4.397046e-10 1.201548e+01 1.507097e-13 -1.830836e-10 1.507097e-13 1.201548e+01" pbc="T T T"
O 1.163310e+00 1.287146e-11 -6.417951e-12 4.458067e-01 -8.348411e-14 3.348683e-13
C 3.764780e-03 1.262847e-11 -6.841854e-12 -2.777458e-01 1.863750e-13 -3.279714e-13
O -1.158634e+00 1.241510e-11 -7.301437e-12 -1.680420e-01 -1.347128e-13 5.764286e-15
3
Lattice="1.800000e+01 0.000000e+00 0.000000e+00 0.000000e+00 1.800000e+01 0.000000e+00 0.000000e+00 0.000000e+00 1.800000e+01" Properties=species:S:1:pos:R:3:force:R:3 energy=3.523432e-03 dipole="-2.433028e-02 -1.779385e-14 2.510182e-15" pol="2.573461e+01 -6.249595e-10 -4.561019e-10 -6.249595e-10 1.199685e+01 2.981893e-13 -4.561019e-10 2.981893e-13 1.199685e+01" pbc="T T T"
O 1.163450e+00 1.352803e-11 -6.379384e-12 -6.407532e-03 -9.914227e-14 3.561140e-14
C -1.069385e-03 1.336037e-11 -6.820587e-12 1.029781e+00 3.184499e-13 2.318397e-13
O -1.155140e+00 1.322210e-11 -7.283949e-12 -1.023439e+00 -2.089045e-13 -2.950776e-13
3
Lattice="1.800000e+01 0.000000e+00 0.000000e+00 0.000000e+00 1.800000e+01 0.000000e+00 0.000000e+00 0.000000e+00 1.800000e+01" Properties=species:S:1:pos:R:3:force:R:3 energy=2.426713e-03 dipole="2.706550e-02 -3.894527e-15 5.472105e-15" pol="2.602670e+01 -5.723062e-13 5.197523e-10 -5.723062e-13 1.207594e+01 -2.168304e-12 5.197523e-10 -2.168304e-12 1.207594e+01" pbc="T T T"
O 1.167019e+00 1.436221e-11 -6.337912e-12 3.163403e-01 -7.894883e-15 4.964263e-14
C 6.986371e-03 1.418899e-11 -6.761655e-12 -1.099533e+00 -3.653121e-14 -3.945318e-13
O -1.164762e+00 1.402759e-11 -7.184970e-12 7.832578e-01 4.738455e-14 3.012923e-13
3
Lattice="1.800000e+01 0.000000e+00 0.000000e+00 0.000000e+00 1.800000e+01 0.000000e+00 0.000000e+00 0.000000e+00 1.800000e+01" Properties=species:S:1:pos:R:3:force:R:3 energy=4.133760e-03 dipole="1.180746e-02 -1.176440e-14 1.367415e-14" pol="2.563941e+01 2.362101e-10 -2.188190e-10 2.362101e-10 1.197031e+01 4.852769e-13 -2.188190e-10 4.852769e-13 1.197031e+01" pbc="T T T"
O 1.159196e+00 1.517074e-11 -6.332157e-12 1.002595e+00 7.598979e-14 3.747195e-13
C 4.567425e-03 1.490781e-11 -6.677114e-12 -5.063155e-01 1.314292e-13 -2.597675e-13
O -1.155119e+00 1.467266e-11 -7.038526e-12 -4.962475e-01 -2.358483e-13 -1.175041e-13
3
Lattice="1.800000e+01 0.000000e+00 0.000000e+00 0.000000e+00 1.800000e+01 0.000000e+00 0.000000e+00 0.000000e+00 1.800000e+01" Properties=species:S:1:pos:R:3:force:R:3 energy=5.116782e-03 dipole="-3.809089e-02 -1.606828e-14 2.894000e-16" pol="2.592574e+01 -8.936775e-10 5.193825e-10 -8.936775e-10 1.205008e+01 -1.958900e-12 5.193825e-10 -1.958900e-12 1.205008e+01" pbc="T T T"
O 1.168537e+00 1.556596e-11 -6.335587e-12 -7.480808e-01 -3.140828e-13 -1.198612e-13
C -3.248138e-03 1.526043e-11 -6.632512e-12 1.570490e+00 5.655802e-13 3.092488e-13
O -1.158590e+00 1.497427e-11 -6.945379e-12 -8.225043e-01 -2.670958e-13 -1.112435e-13
3
Lattice="1.800000e+01 0.000000e+00 0.000000e+00 0.000000e+00 1.800000e+01 0.000000e+00 0.000000e+00 0.000000e+00 1.800000e+01" Properties=species:S:1:pos:R:3:force:R:3 energy=4.656539e-04 dipole="-1.827403e-02 2.123746e-14 8.189370e-15" pol="2.585413e+01 3.693138e-10 -1.181937e-10 3.693138e-10 1.202874e+01 -5.745898e-12 -1.181937e-10 -5.745898e-12 1.202874e+01" pbc="T T T"
O 1.165827e+00 1.709796e-11 -6.311276e-12 -1.879792e-01 1.161636e-13 5.172238e-14
C -1.335107e-04 1.680767e-11 -6.413614e-12 7.603950e-01 -1.784290e-13 1.264975e-14
O -1.158220e+00 1.646506e-11 -6.521043e-12 -5.724665e-01 -3.080896e-14 -7.569158e-14
3
Lattice="1.800000e+01 0.000000e+00 0.000000e+00 0.000000e+00 1.800000e+01 0.000000e+00 0.000000e+00 0.000000e+00 1.800000e+01" Properties=species:S:1:pos:R:3:force:R:3 energy=1.587044e-03 dipole="3.139883e-03 -2.578092e-14 -3.253860e-15" pol="2.615286e+01 2.994651e-10 -1.727391e-11 2.994651e-10 1.210827e+01 1.411207e-12 -1.727391e-11 1.411207e-12 1.210827e+01" pbc="T T T"
O 1.171325e+00 1.733883e-11 -6.271717e-12 -4.984222e-01 -3.291940e-13 -5.387624e-14
C 3.224923e-03 1.701876e-11 -6.379370e-12 -1.252141e-01 3.712404e-13 3.869909e-14
O -1.166238e+00 1.674835e-11 -6.480346e-12 6.236428e-01 -7.827475e-14 5.169418e-14
3
Lattice="1.800000e+01 0.000000e+00 0.000000e+00 0.000000e+00 1.800000e+01 0.000000e+00 0.000000e+00 0.000000e+00 1.800000e+01" Properties=species:S:1:pos:R:3:force:R:3 energy=5.602115e-05 dipole="9.139604e-03 3.408493e-14 4.184509e-15" pol="2.606137e+01 5.326268e-10 -3.098193e-10 5.326268e-10 1.208396e+01 1.165578e-12 -3.098193e-10 1.165578e-12 1.208396e+01" pbc="T T T"
O 1.168907e+00 1.788071e-11 -6.137435e-12 -1.506748e-01 2.410994e-13 4.138213e-14
C 4.167693e-03 1.768501e-11 -6.267683e-12 -3.692770e-01 -5.843793e-13 -1.225921e-13
O -1.164532e+00 1.742107e-11 -6.407719e-12 5.199737e-01 3.329777e-13 7.797539e-14
3
Lattice="1.800000e+01 0.000000e+00 0.000000e+00 0.000000e+00 1.800000e+01 0.000000e+00 0.000000e+00 0.000000e+00 1.800000e+01" Properties=species:S:1:pos:R:3:force:R:3 energy=4.651262e-03 dipole="-2.058060e-02 -3.588284e-14 -1.063782e-14" pol="2.620065e+01 -3.574525e-11 1.933897e-10 -3.574525e-11 1.212190e+01 1.870540e-13 1.933897e-10 1.870540e-13 1.212190e+01" pbc="T T T"
O 1.173768e+00 1.851802e-11 -5.921838e-12 -1.073993e+00 -4.567847e-13 -2.686672e-13
C -5.264056e-04 1.831083e-11 -6.149130e-12 8.156187e-01 6.845366e-13 2.573608e-13
O -1.165871e+00 1.817714e-11 -6.362892e-12 2.583369e-01 -2.072243e-13 -3.810292e-14
3
Lattice="1.800000e+01 0.000000e+00 0.000000e+00 0.000000e+00 1.800000e+01 0.000000e+00 0.000000e+00 0.000000e+00 1.800000e+01" Properties=species:S:1:pos:R:3:force:R:3 energy=2.025022e-04 dipole="-1.798847e-03 -1.307494e-14 -2.724596e-15" pol="2.576397e+01 2.983032e-10 1.687784e-10 2.983032e-10 1.200384e+01 6.652845e-13 1.687784e-10 6.652845e-13 1.200384e+01" pbc="T T T"
O 1.162834e+00 2.046401e-11 -5.317078e-12 3.795012e-01 -7.036715e-14 1.144946e-13
C 2.446305e-03 2.024542e-11 -5.729686e-12 7.576382e-02 2.574846e-13 8.398687e-14
O -1.157168e+00 2.005492e-11 -6.139114e-12 -4.552702e-01 -2.406214e-13 -2.470000e-13
3
Lattice="1.800000e+01 0.000000e+00 0.000000e+00 0.000000e+00 1.800000e+01 0.000000e+00 0.000000e+00 0.000000e+00 1.800000e+01" Properties=species:S:1:pos:R:3:force:R:3 energy=2.322310e-03 dipole="-1.363735e-02 9.523176e-15 1.669690e-15" pol="2.570699e+01 1.320131e-10 2.300153e-11 1.320131e-10 1.198871e+01 2.456653e-12 2.300153e-11 2.456653e-12 1.198871e+01" pbc="T T T"
O 1.162221e+00 2.122304e-11 -5.164297e-12 2.816058e-01 1.043487e-13 1.077458e-13
C 6.014192e-04 2.098105e-11 -5.561616e-12 5.792685e-01 -2.948147e-14 1.583249e-13
O -1.155166e+00 2.071527e-11 -5.965499e-12 -8.609121e-01 -5.980124e-14 -2.685408e-13
3
Lattice="1.800000e+01 0.000000e+00 0.000000e+00 0.000000e+00 1.800000e+01 0.000000e+00 0.000000e+00 0.000000e+00 1.800000e+01" Properties=species:S:1:pos:R:3:force:R:3 energy=6.785622e-03 dipole="3.754770e-02 -4.363689e-14 5.644855e-15" pol="2.611909e+01 7.153535e-11 9.773930e-11 7.153535e-11 1.210214e+01 -6.807985e-13 9.773930e-11 -6.807985e-13 1.210214e+01" pbc="T T T"
O 1.168418e+00 2.236656e-11 -4.992602e-12 3.091952e-01 -2.778804e-13 9.022420e-14
C 8.650638e-03 2.199940e-11 -5.296018e-12 -1.506515e+00 3.986710e-13 -3.105881e-13
O -1.167409e+00 2.173111e-11 -5.600206e-12 1.197396e+00 -4.123182e-14 2.228383e-13
3
Lattice="1.800000e+01 0.000000e+00 0.000000e+00 0.000000e+00 1.800000e+01 0.000000e+00 0.000000e+00 0.000000e+00 1.800000e+01" Properties=species:S:1:pos:R:3:force:R:3 energy=7.044884e-03 dipole="3.962540e-02 -3.838960e-14 8.633173e-15" pol="2.609644e+01 -1.127637e-09 -1.833422e-10 -1.127637e-09 1.209637e+01 2.266925e-12 -1.833422e-10 2.266925e-12 1.209637e+01" pbc="T T T"
O 1.167776e+00 2.737418e-11 -3.273396e-12 4.128425e-01 -3.134333e-13 7.498021e-14
C 8.974376e-03 2.710808e-11 -3.601359e-12 -1.595166e+00 4.504873e-13 -3.814740e-13
O -1.167011e+00 2.693629e-11 -3.928078e-12 1.182406e+00 -1.756939e-13 3.224127e-13
3
Lattice="1.800000e+01 0.000000e+00 0.000000e+00 0.000000e+00 1.800000e+01 0.000000e+00 0.000000e+00 0.000000e+00 1.800000e+01" Properties=species:S:1:pos:R:3:force:R:3 energy=4.068452e-03 dipole="-1.155339e-02 -3.986645e-14 -8.220720e-15" pol="2.622094e+01 1.917658e-10 -8.158339e-10 1.917658e-10 1.212666e+01 -1.084623e-12 -8.158339e-10 -1.084623e-12 1.212666e+01" pbc="T T T"
O 1.173712e+00 2.787602e-11 -3.060542e-12 -9.503265e-01 -5.517057e-13 -3.379046e-13
C 9.008903e-04 2.758706e-11 -3.427198e-12 4.564336e-01 7.688109e-13 2.052588e-13
O -1.166883e+00 2.738247e-11 -3.783967e-12 4.938727e-01 -2.770557e-13 1.469615e-13
3
Lattice="1.800000e+01 0.000000e+00 0.000000e+00 0.000000e+00 1.800000e+01 0.000000e+00 0.000000e+00 0.000000e+00 1.800000e+01" Properties=species:S:1:pos:R:3:force:R:3 energy=4.737923e-03 dipole="1.264702e-02 4.376067e-14 1.069465e-14" pol="2.623774e+01 2.464423e-10 -3.030522e-10 2.464423e-10 1.213120e+01 1.701606e-12 -3.030522e-10 1.701606e-12 1.213120e+01" pbc="T T T"
O 1.172649e+00 2.872053e-11 -2.722877e-12 -5.123978e-01 2.701325e-13 -1.969209e-13
C 4.730527e-03 2.847739e-11 -3.099768e-12 -4.984683e-01 -7.953734e-13 -2.535114e-13
O -1.168694e+00 2.814589e-11 -3.492980e-12 1.010887e+00 6.003015e-13 4.098549e-13
3
Lattice="1.800000e+01 0.000000e+00 0.000000e+00 0.000000e+00 1.800000e+01 0.000000e+00 0.000000e+00 0.000000e+00 1.800000e+01" Properties=species:S:1:pos:R:3:force:R:3 energy=3.592776e-03 dipole="-2.922987e-02 -2.047250e-14 -1.456921e-14" pol="2.607461e+01 4.357610e-10 -5.407165e-10 4.357610e-10 1.208906e+01 1.021171e-12 -5.407165e-10 1.021171e-12 1.208906e+01" pbc="T T T"
O 1.171415e+00 3.008085e-11 -2.261575e-12 -9.387003e-01 -4.010528e-13 -3.416546e-13
C -1.877844e-03 2.976373e-11 -2.583900e-12 1.179596e+00 5.720937e-13 4.415484e-13
O -1.162502e+00 2.948149e-11 -2.889968e-12 -2.409611e-01 -1.837829e-13 -1.297461e-13
3
Lattice="1.800000e+01 0.000000e+00 0.000000e+00 0.000000e+00 1.800000e+01 0.000000e+00 0.000000e+00 0.000000e+00 1.800000e+01" Properties=species:S:1:pos:R:3:force:R:3 energy=1.064600e-03 dipole="-1.418144e-02 -8.253191e-15 2.815016e-15" pol="2.576633e+01 1.290168e-10 -5.367390e-12 1.290168e-10 1.200479e+01 1.145444e-12 -5.367390e-12 1.145444e-12 1.200479e+01" pbc="T T T"
O 1.163603e+00 3.083353e-11 -2.033266e-12 1.173426e-01 -6.931333e-14 1.048114e-13
C 5.132757e-04 3.057728e-11 -2.254637e-12 5.973758e-01 2.125040e-13 6.104551e-14
O -1.156481e+00 3.033288e-11 -2.486049e-12 -7.147583e-01 -1.928823e-13 -9.403544e-14
3
Lattice="1.800000e+01 0.000000e+00 0.000000e+00 0.000000e+00 1.800000e+01 0.000000e+00 0.000000e+00 0.000000e+00 1.800000e+01" Properties=species:S:1:pos:R:3:force:R:3 energy=1.166960e-02 dipole="-4.437058e-02 -2.030502e-14 3.795361e-15" pol="2.567037e+01 2.717215e-10 5.090771e-10 2.717215e-10 1.198158e+01 -2.670015e-12 5.090771e-10 -2.670015e-12 1.198158e+01" pbc="T T T"
O 1.163072e+00 3.189248e-11 -1.675462e-12 -2.372942e-01 -1.439372e-13 -1.454146e-14
C -4.187442e-03 3.168716e-11 -1.788331e-12 1.896945e+00 5.065615e-13 1.377874e-13
O -1.152425e+00 3.151593e-11 -1.908584e-12 -1.659755e+00 -3.410343e-13 -1.602825e-13
3
Lattice="1.800000e+01 0.000000e+00 0.000000e+00 0.000000e+00 1.800000e+01 0.000000e+00 0.000000e+00 0.000000e+00 1.800000e+01" Properties=species:S:1:pos:R:3:force:R:3 energy=9.067739e-04 dipole="1.733275e-02 -2.226523e-14 -4.308856e-17" pol="2.580294e+01 -3.190264e-11 5.411687e-10 -3.190264e-11 1.201486e+01 -2.159637e-12 5.411687e-10 -2.159637e-12 1.201486e+01" pbc="T T T"
O 1.162576e+00 3.239106e-11 -1.487805e-12 6.865774e-01 -9.574970e-14 5.938138e-14
C 5.438508e-03 3.219298e-11 -1.576921e-12 -7.264248e-01 2.399513e-13 -1.017282e-14
O -1.159156e+00 3.204192e-11 -1.664450e-12 3.989595e-02 -1.487140e-13 -3.770871e-14
3
Lattice="1.800000e+01 0.000000e+00 0.000000e+00 0.000000e+00 1.800000e+01 0.000000e+00 0.000000e+00 0.000000e+00 1.800000e+01" Properties=species:S:1:pos:R:3:force:R:3 energy=2.452427e-03 dipole="-8.412808e-03 9.127806e-15 -4.859910e-15" pol="2.617586e+01 1.033242e-10 6.637950e-11 1.033242e-10 1.211452e+01 2.518674e-12 6.637950e-11 2.518674e-12 1.211452e+01" pbc="T T T"
O 1.172519e+00 3.473905e-11 -4.973257e-13 -7.824543e-01 -5.819940e-14 -1.404084e-13
C 1.398101e-03 3.448524e-11 -6.188980e-13 3.344588e-01 -7.623729e-14 1.902142e-13
O -1.166066e+00 3.421222e-11 -7.253219e-13 4.479790e-01 1.809272e-13 -1.236139e-13
3
Lattice="1.800000e+01 0.000000e+00 0.000000e+00 0.000000e+00 1.800000e+01 0.000000e+00 0.000000e+00 0.000000e+00 1.800000e+01" Properties=species:S:1:pos:R:3:force:R:3 energy=1.663815e-03 dipole="2.583135e-02 2.605589e-14 -4.847008e-15" pol="2.595678e+01 1.255329e-11 1.584975e-10 1.255329e-11 1.205701e+01 -1.112310e-12 1.584975e-10 -1.112310e-12 1.205701e+01" pbc="T T T"
O 1.165524e+00 3.534201e-11 -2.027194e-13 4.695728e-01 1.944851e-13 -2.862314e-15
C 6.784676e-03 3.506578e-11 -3.746995e-13 -1.059721e+00 -5.463863e-13 3.138295e-14
O -1.163115e+00 3.474806e-11 -5.313242e-13 5.902150e-01 2.560393e-13 -5.221508e-14
3
Lattice="1.800000e+01 0.000000e+00 0.000000e+00 0.000000e+00 1.800000e+01 0.000000e+00 0.000000e+00 0.000000e+00 1.800000e+01" Properties=species:S:1:pos:R:3:force:R:3 energy=3.143751e-03 dipole="-1.629583e-02 -1.787689e-14 9.969474e-15" pol="2.617105e+01 -3.076682e-10 6.061335e-11 -3.076682e-10 1.211365e+01 5.456018e-12 6.061335e-11 5.456018e-12 1.211365e+01" pbc="T T T"
O 1.172864e+00 3.571984e-11 -1.683287e-14 -9.229620e-01 -3.923327e-13 -9.826760e-14
C 1.539010e-04 3.539321e-11 -2.094422e-13 6.484218e-01 3.447138e-13 -1.609785e-14
O -1.165474e+00 3.509512e-11 -4.245057e-13 2.745082e-01 1.028901e-13 1.195318e-13
3
Lattice="1.800000e+01 0.000000e+00 0.000000e+00 0.000000e+00 1.800000e+01 0.000000e+00 0.000000e+00 0.000000e+00 1.800000e+01" Properties=species:S:1:pos:R:3:force:R:3 energy=6.685187e-03 dipole="2.926107e-02 2.572643e-14 -3.758589e-15" pol="2.620788e+01 5.726373e-11 -1.599848e-10 5.726373e-11 1.212478e+01 -1.126299e-12 -1.599848e-10 -1.126299e-12 1.212478e+01" pbc="T T T"
O 1.170938e+00 3.968076e-11 2.044229e-12 -9.325862e-02 1.630195e-13 -2.741167e-13
C 7.355766e-03 3.954266e-11 1.614642e-12 -1.158891e+00 -5.434486e-13 -1.135841e-13
O -1.168954e+00 3.934862e-11 1.215498e-12 1.252201e+00 4.068058e-13 3.564583e-13
3
Lattice="1.800000e+01 0.000000e+00 0.000000e+00 0.000000e+00 1.800000e+01 0.000000e+00 0.000000e+00 0.000000e+00 1.800000e+01" Properties=species:S:1:pos:R:3:force:R:3 energy=1.255940e-03 dipole="2.260735e-02 -1.476231e-15 2.009738e-14" pol="2.585511e+01 -3.581931e-10 -2.288532e-10 -3.581931e-10 1.202931e+01 1.013468e-12 -2.288532e-10 1.013468e-12 1.202931e+01" pbc="T T T"
O 1.163432e+00 4.013358e-11 2.221616e-12 6.644699e-01 2.748547e-14 2.681797e-13
C 6.268889e-03 3.996305e-11 1.847635e-12 -9.407110e-01 -2.407522e-14 -4.572004e-13
O -1.160635e+00 3.980498e-11 1.447809e-12 2.763031e-01 -2.768439e-15 1.120322e-13
3
Lattice="1.800000e+01 0.000000e+00 0.000000e+00 0.000000e+00 1.800000e+01 0.000000e+00 0.000000e+00 0.000000e+00 1.800000e+01" Properties=species:S:1:pos:R:3:force:R:3 energy=3.189698e-03 dipole="1.934225e-02 1.913556e-14 -1.783636e-15" pol="2.570714e+01 2.086727e-10 -5.001407e-10 2.086727e-10 1.198905e+01 -1.565427e-12 -5.001407e-10 -1.565427e-12 1.198905e+01" pbc="T T T"
O 1.160281e+00 4.160471e-11 2.765361e-12 9.863015e-01 3.115113e-13 1.700719e-13
C 5.746215e-03 4.140880e-11 2.522324e-12 -8.216956e-01 -3.612281e-13 -7.842103e-14
O -1.157089e+00 4.117569e-11 2.290085e-12 -1.645531e-01 1.598199e-13 -1.884340e-13
3
Lattice="1.800000e+01 0.000000e+00 0.000000e+00 0.000000e+00 1.800000e+01 0.000000e+00 0.000000e+00 0.000000e+00 1.800000e+01" Properties=species:S:1:pos:R:3:force:R:3 energy=-8.884601e-04 dipole="-3.131355e-03 -2.009182e-14 1.269158e-14" pol="2.601089e+01 -4.359172e-10 -1.726040e-10 -4.359172e-10 1.207030e+01 3.143491e-12 -1.726040e-10 3.143491e-12 1.207030e+01" pbc="T T T"
O 1.168502e+00 4.218108e-11 2.959686e-12 -2.756605e-01 -2.151486e-13 6.077419e-14
C 2.236733e-03 4.191172e-11 2.798106e-12 1.274016e-01 3.332464e-13 -2.125092e-13
O -1.162674e+00 4.167889e-11 2.607500e-12 1.482509e-01 -1.043088e-13 1.344771e-13
3
Lattice="1.800000e+01 0.000000e+00 0.000000e+00 0.000000e+00 1.800000e+01 0.000000e+00 0.000000e+00 0.000000e+00 1.800000e+01" Properties=species:S:1:pos:R:3:force:R:3 energy=2.833925e-04 dipole="1.498164e-02 1.784911e-14 -8.337932e-15" pol="2.582385e+01 -4.037570e-10 1.798773e-10 -4.037570e-10 1.202037e+01 1.768392e-12 1.798773e-10 1.768392e-12 1.202037e+01" pbc="T T T"
O 1.163193e+00 4.328034e-11 3.391154e-12 5.804850e-01 2.299923e-13 7.437851e-15
C 5.072515e-03 4.297252e-11 3.301107e-12 -6.260050e-01 -3.368797e-13 1.004044e-13
O -1.159497e+00 4.263497e-11 3.231194e-12 4.556220e-02 1.368115e-13 -1.306844e-13
3
Lattice="1.800000e+01 0.000000e+00 0.000000e+00 0.000000e+00 1.800000e+01 0.000000e+00 0.000000e+00 0.000000e+00 1.800000e+01" Properties=species:S:1:pos:R:3:force:R:3 energy=6.727190e-03 dipole="3.588306e-02 3.405545e-14 -1.554352e-14" pol="2.614067e+01 -4.040291e-10 7.484759e-11 -4.040291e-10 1.210769e+01 -2.278829e-12 7.484759e-11 -2.278829e-12 1.210769e+01" pbc="T T T"
O 1.169008e+00 4.644232e-11 4.825593e-12 2.179504e-01 1.838746e-13 -6.370499e-14
C 8.391414e-03 4.624871e-11 4.929634e-12 -1.435209e+00 -6.589168e-13 2.717334e-13
O -1.167805e+00 4.600144e-11 5.051654e-12 1.217329e+00 4.475364e-13 -1.700493e-13
3
Lattice="1.800000e+01 0.000000e+00 0.000000e+00 0.000000e+00 1.800000e+01 0.000000e+00 0.000000e+00 0.000000e+00 1.800000e+01" Properties=species:S:1:pos:R:3:force:R:3 energy=9.561555e-03 dipole="-3.778202e-02 -3.408872e-14 1.488709e-14" pol="2.622348e+01 -5.565326e-10 4.951232e-10 -5.565326e-10 1.213022e+01 -3.568670e-12 4.951232e-10 -3.568670e-12 1.213022e+01" pbc="T T T"
O 1.175219e+00 4.680386e-11 4.960177e-12 -1.442843e+00 -4.475978e-13 2.599875e-13
C -3.249616e-03 4.658314e-11 5.122319e-12 1.493825e+00 6.465635e-13 -3.441781e-13
O -1.165277e+00 4.641684e-11 5.264170e-12 -5.104350e-02 -1.710994e-13 1.336114e-13
3
Lattice="1.800000e+01 0.000000e+00 0.000000e+00 0.000000e+00 1.800000e+01 0.000000e+00 0.000000e+00 0.000000e+00 1.800000e+01" Properties=species:S:1:pos:R:3:force:R:3 energy=1.744343e-04 dipole="6.904077e-03 -1.949529e-14 1.101311e-15" pol="2.607836e+01 4.626805e-10 5.114300e-10 4.626805e-10 1.208844e+01 6.051797e-13 5.114300e-10 6.051797e-13 1.208844e+01" pbc="T T T"
O 1.169425e+00 5.116733e-11 6.516998e-12 -2.389314e-01 -2.255843e-13 2.058510e-13
C 3.816640e-03 5.093379e-11 7.001026e-12 -2.782720e-01 2.967597e-13 -3.710794e-14
O -1.164784e+00 5.074466e-11 7.474268e-12 5.172196e-01 -1.147603e-13 -1.075482e-13
3
Lattice="1.800000e+01 0.000000e+00 0.000000e+00 0.000000e+00 1.800000e+01 0.000000e+00 0.000000e+00 0.000000e+00 1.800000e+01" Properties=species:S:1:pos:R:3:force:R:3 energy=1.996768e-03 dipole="8.909266e-04 2.304203e-14 2.676334e-15" pol="2.617002e+01 2.293017e-10 1.876941e-10 2.293017e-10 1.211286e+01 -2.442842e-12 1.876941e-10 -2.442842e-12 1.211286e+01" pbc="T T T"
O 1.171843e+00 5.230440e-11 6.919812e-12 -5.851006e-01 2.855253e-14 2.948979e-13
C 2.869476e-03 5.204189e-11 7.404102e-12 -3.539804e-02 -3.429479e-13 -2.220522e-15
O -1.166491e+00 5.173160e-11 7.891895e-12 6.205004e-01 3.390144e-13 -3.206234e-13
3
Lattice="1.800000e+01 0.000000e+00 0.000000e+00 0.000000e+00 1.800000e+01 0.000000e+00 0.000000e+00 0.000000e+00 1.800000e+01" Properties=species:S:1:pos:R:3:force:R:3 energy=5.067409e-03 dipole="3.504193e-02 -7.616459e-15 -6.228094e-15" pol="2.580714e+01 -5.170538e-11 -1.472108e-10 -5.170538e-11 1.201758e+01 -3.967737e-13 -1.472108e-10 -3.967737e-13 1.201758e+01" pbc="T T T"
O 1.161569e+00 5.278757e-11 7.087989e-12 1.069553e+00 1.358500e-13 -3.335671e-13
C 8.209480e-03 5.246265e-11 7.577342e-12 -1.468813e+00 -1.363024e-13 4.011495e-13
O -1.160228e+00 5.216943e-11 8.053553e-12 3.993518e-01 -3.058504e-14 -8.909866e-14
3
Lattice="1.800000e+01 0.000000e+00 0.000000e+00 0.000000e+00 1.800000e+01 0.000000e+00 0.000000e+00 0.000000e+00 1.800000e+01" Properties=species:S:1:pos:R:3:force:R:3 energy=8.720565e-03 dipole="-3.315513e-02 -3.372256e-14 -9.592676e-16" pol="2.623982e+01 6.391776e-10 4.488098e-10 6.391776e-10 1.213386e+01 -1.731275e-12 4.488098e-10 -1.731275e-12 1.213386e+01" pbc="T T T"
O 1.175337e+00 5.342507e-11 7.313949e-12 -1.396881e+00 -5.964018e-13 5.285029e-13
C -2.520090e-03 5.307216e-11 7.788796e-12 1.307498e+00 6.476116e-13 -3.896878e-13
O -1.165943e+00 5.275705e-11 8.281985e-12 8.933080e-02 -6.656525e-14 -6.045971e-14
3
Lattice="1.800000e+01 0.000000e+00 0.000000e+00 0.000000e+00 1.800000e+01 0.000000e+00 0.000000e+00 0.000000e+00 1.800000e+01" Properties=species:S:1:pos:R:3:force:R:3 energy=-6.949553e-04 dipole="-1.006652e-02 -2.152325e-14 3.331046e-15" pol="2.586899e+01 -2.639704e-10 -2.060146e-10 -2.639704e-10 1.203233e+01 1.684892e-12 -2.060146e-10 1.684892e-12 1.203233e+01" pbc="T T T"
O 1.165697e+00 5.573859e-11 8.181825e-12 -6.049556e-02 -1.786661e-13 7.495345e-14
C 1.151423e-03 5.545320e-11 8.606137e-12 4.179163e-01 4.006121e-13 -1.979091e-13
O -1.159055e+00 5.520768e-11 9.028934e-12 -3.574490e-01 -2.332047e-13 1.418262e-13
3
Lattice="1.800000e+01 0.000000e+00 0.000000e+00 0.000000e+00 1.800000e+01 0.000000e+00 0.000000e+00 0.000000e+00 1.800000e+01" Properties=species:S:1:pos:R:3:force:R:3 energy=2.075629e-04 dipole="-7.736646e-03 -6.475140e-16 -2.993801e-14" pol="2.607721e+01 2.143014e-11 8.172297e-10 2.143014e-11 1.208815e+01 -2.329379e-12 8.172297e-10 -2.329379e-12 1.208815e+01" pbc="T T T"
O 1.170264e+00 5.773624e-11 9.039593e-12 -5.309109e-01 -5.176206e-14 -1.038221e-13
C 1.509213e-03 5.759939e-11 9.268859e-12 3.118849e-01 8.261142e-14 3.611615e-13
O -1.163892e+00 5.746369e-11 9.558091e-12 2.190079e-01 -1.525759e-14 -2.890087e-13
3
Lattice="1.800000e+01 0.000000e+00 0.000000e+00 0.000000e+00 1.800000e+01 0.000000e+00 0.000000e+00 0.000000e+00 1.800000e+01" Properties=species:S:1:pos:R:3:force:R:3 energy=7.866070e-03 dipole="-4.529828e-02 -1.900984e-14 -4.915227e-15" pol="2.598085e+01 3.438980e-10 6.727745e-11 3.438980e-10 1.206609e+01 -1.655052e-12 6.727745e-11 -1.655052e-12 1.206609e+01" pbc="T T T"
O 1.170163e+00 5.865375e-11 9.405065e-12 -1.013835e+00 -1.827085e-13 7.436986e-14
C -4.389510e-03 5.852658e-11 9.560276e-12 1.854135e+00 3.578303e-13 -1.285033e-13
O -1.159360e+00 5.843103e-11 9.741335e-12 -8.404037e-01 -1.839685e-13 1.373469e-13
3
Lattice="1.800000e+01 0.000000e+00 0.000000e+00 0.000000e+00 1.800000e+01 0.000000e+00 0.000000e+00 0.000000e+00 1.800000e+01" Properties=species:S:1:pos:R:3:force:R:3 energy=1.580583e-03 dipole="6.110942e-03 -2.276535e-15 2.928743e-14" pol="2.614792e+01 -1.983426e-10 5.656188e-11 -1.983426e-10 1.210700e+01 2.131683e-12 5.656188e-11 2.131683e-12 1.210700e+01" pbc="T T T"
O 1.171034e+00 5.968585e-11 9.768251e-12 -4.264058e-01 -4.037831e-14 2.101851e-13
C 3.692599e-03 5.957143e-11 9.891325e-12 -2.438939e-01 2.590094e-14 -4.401057e-13
O -1.166303e+00 5.946080e-11 9.955330e-12 6.703124e-01 6.757546e-15 1.822534e-13
3
Lattice="1.800000e+01 0.000000e+00 0.000000e+00 0.000000e+00 1.800000e+01 0.000000e+00 0.000000e+00 0.000000e+00 1.800000e+01" Properties=species:S:1:pos:R:3:force:R:3 energy=3.172512e-03 dipole="-1.679448e-02 1.398717e-14 3.561744e-15" pol="2.569193e+01 2.455692e-10 -7.844640e-10 2.455692e-10 1.198478e+01 1.044145e-12 -7.844640e-10 1.044145e-12 1.198478e+01" pbc="T T T"
O 1.162056e+00 6.071400e-11 1.010201e-11 2.558439e-01 1.412156e-13 -4.218029e-14
C 1.083795e-04 6.057972e-11 1.015503e-11 7.149399e-01 -7.203229e-14 -7.343900e-14
O -1.154634e+00 6.041566e-11 1.020283e-11 -9.708297e-01 -3.180582e-14 9.865124e-14
3
Lattice="1.800000e+01 0.000000e+00 0.000000e+00 0.000000e+00 1.800000e+01 0.000000e+00 0.000000e+00 0.000000e+00 1.800000e+01" Properties=species:S:1:pos:R:3:force:R:3 energy=-6.952899e-04 dipole="-4.519045e-03 1.271612e-14 1.172267e-14" pol="2.582849e+01 1.071879e-10 -6.311599e-12 1.071879e-10 1.202128e+01 -5.329417e-13 -6.311599e-12 -5.329417e-13 1.202128e+01" pbc="T T T"
O 1.164458e+00 6.152903e-11 1.032598e-11 1.561692e-01 1.157213e-13 1.625963e-13
C 2.021233e-03 6.133815e-11 1.037500e-11 1.886627e-01 -1.026115e-13 -1.989550e-13
O -1.158470e+00 6.112257e-11 1.039451e-11 -3.448448e-01 -1.379792e-14 2.094425e-13
3
Lattice="1.800000e+01 0.000000e+00 0.000000e+00 0.000000e+00 1.800000e+01 0.000000e+00 0.000000e+00 0.000000e+00 1.800000e+01" Properties=species:S:1:pos:R:3:force:R:3 energy=5.350991e-03 dipole="3.405686e-02 2.386452e-14 2.228498e-14" pol="2.577197e+01 1.435954e-10 1.045279e-10 1.435954e-10 1.200793e+01 1.112375e-12 1.045279e-10 1.112375e-12 1.200793e+01" pbc="T T T"
O 1.160835e+00 6.411273e-11 1.095618e-11 1.141998e+00 3.710855e-13 3.675393e-14
C 8.049589e-03 6.375517e-11 1.101769e-11 -1.434522e+00 -5.830954e-13 -1.511216e-13
O -1.159377e+00 6.337152e-11 1.104632e-11 2.926136e-01 1.653756e-13 1.679438e-13
3
Lattice="1.800000e+01 0.000000e+00 0.000000e+00 0.000000e+00 1.800000e+01 0.000000e+00 0.000000e+00 0.000000e+00 1.800000e+01" Properties=species:S:1:pos:R:3:force:R:3 energy=3.482292e-03 dipole="-3.288668e-02 1.787855e-14 -5.716984e-15" pol="2.591851e+01 3.534256e-10 6.756450e-11 3.534256e-10 1.204745e+01 -3.940735e-12 6.756450e-11 -3.940735e-12 1.204745e+01" pbc="T T T"
O 1.168092e+00 6.669345e-11 1.148177e-11 -6.320211e-01 -3.874607e-14 -3.062333e-15
C -2.431044e-03 6.638306e-11 1.163786e-11 1.356902e+00 1.068736e-13 -5.078576e-14
O -1.158761e+00 6.602873e-11 1.181559e-11 -7.249652e-01 -1.461838e-13 5.599381e-14
3
Lattice="1.800000e+01 0.000000e+00 0.000000e+00 0.000000e+00 1.800000e+01 0.000000e+00 0.000000e+00 0.000000e+00 1.800000e+01" Properties=species:S:1:pos:R:3:force:R:3 energy=4.755617e-03 dipole="3.450824e-02 -1.533046e-14 7.458193e-15" pol="2.605456e+01 -6.782315e-10 3.000201e-10 -6.782315e-10 1.208434e+01 -2.648131e-12 3.000201e-10 -2.648131e-12 1.208434e+01" pbc="T T T"
O 1.167170e+00 6.712626e-11 1.153994e-11 4.073666e-01 -2.174403e-16 1.562086e-14
C 8.162161e-03 6.679815e-11 1.175666e-11 -1.396937e+00 -1.819046e-15 -5.279856e-15
O -1.165794e+00 6.651127e-11 1.194732e-11 9.896477e-01 1.013214e-13 -3.801778e-14
3
Lattice="1.800000e+01 0.000000e+00 0.000000e+00 0.000000e+00 1.800000e+01 0.000000e+00 0.000000e+00 0.000000e+00 1.800000e+01" Properties=species:S:1:pos:R:3:force:R:3 energy=1.417080e-03 dipole="-2.443859e-02 2.605169e-16 -5.188500e-16" pol="2.588868e+01 -3.108965e-10 2.560682e-10 -3.108965e-10 1.203853e+01 8.104427e-13 2.560682e-10 8.104427e-13 1.203853e+01" pbc="T T T"
O 1.166954e+00 6.663210e-17 -3.819966e-17 -3.957519e-01 -2.809335e-14 -5.630577e-14
C -1.102333e-03 -1.524460e-16 4.734657e-16 1.012185e+00 -2.464728e-14 4.583322e-16
O -1.158620e+00 -8.537121e-16 7.438542e-16 -6.164986e-01 -2.602125e-14 5.323692e-15
3
Lattice="1.800000e+01 0.000000e+00 0.000000e+00 0.000000e+00 1.800000e+01 0.000000e+00 0.000000e+00 0.000000e+00 1.800000e+01" Properties=species:S:1:pos:R:3:force:R:3 energy=3.698663e-03 dipole="-4.084633e-03 -4.423576e-15 -4.158608e-15" pol="2.563532e+01 -9.483824e-11 -7.609711e-11 -9.483824e-11 1.196902e+01 9.467913e-13 -7.609711e-11 9.467913e-13 1.196902e+01" pbc="T T T"
O 1.160038e+00 -7.917796e-15 -1.311386e-14 6.697363e-01 -3.114948e-14 4.085226e-15
C 2.091545e-03 -5.130809e-15 -2.429766e-15 1.752275e-01 5.210514e-14 -7.862111e-15
O -1.154106e+00 3.320082e-15 9.434104e-15 -8.449748e-01 2.404025e-14 -5.154334e-15
3
Lattice="1.800000e+01 0.000000e+00 0.000000e+00 0.000000e+00 1.800000e+01 0.000000e+00 0.000000e+00 0.000000e+00 1.800000e+01" Properties=species:S:1:pos:R:3:force:R:3 energy=2.797845e-03 dipole="-1.645157e-02 -3.612059e-15 3.328529e-15" pol="2.615700e+01 9.214257e-11 -3.579805e-10 9.214257e-11 1.210991e+01 2.183321e-12 -3.579805e-10 2.183321e-12 1.210991e+01" pbc="T T T"
O 1.172556e+00 -1.730162e-14 -4.461380e-14 -8.925852e-01 2.653011e-14 1.215265e-13
C 1.294669e-04 -4.679730e-15 -1.003568e-14 6.559201e-01 7.684793e-14 -2.766463e-14
O -1.165151e+00 1.281552e-14 2.331627e-14 2.366319e-01 -2.738629e-14 4.385399e-14
3
Lattice="1.800000e+01 0.000000e+00 0.000000e+00 0.000000e+00 1.800000e+01 0.000000e+00 0.000000e+00 0.000000e+00 1.800000e+01" Properties=species:S:1:pos:R:3:force:R:3 energy=3.974735e-03 dipole="-8.277325e-03 1.874713e-15 -3.569287e-15" pol="2.563437e+01 2.808329e-11 -1.081443e-10 2.808329e-11 1.196883e+01 -1.978407e-12 -1.081443e-10 -1.978407e-12 1.196883e+01" pbc="T T T"
O 1.160255e+00 -8.664241e-14 -1.776333e-13 5.835667e-01 -3.128483e-14 -1.391828e-13
C 1.435155e-03 -1.463419e-14 -5.641843e-14 3.551694e-01 -8.197995e-14 -5.219611e-14
O -1.153839e+00 4.710011e-14 6.965780e-14 -9.387582e-01 1.277779e-13 1.308602e-13
3
Lattice="1.800000e+01 0.000000e+00 0.000000e+00 0.000000e+00 1.800000e+01 0.000000e+00 0.000000e+00 0.000000e+00 1.800000e+01" Properties=species:S:1:pos:R:3:force:R:3 energy=1.446151e-04 dipole="-9.127218e-03 9.361430e-15 -1.911407e-15" pol="2.578814e+01 -3.395313e-10 -5.916628e-11 -3.395313e-10 1.201049e+01 2.657908e-13 -5.916628e-11 2.657908e-13 1.201049e+01" pbc="T T T"
O 1.163804e+00 -1.400081e-13 -2.631715e-13 1.647801e-01 -3.912975e-14 -1.275865e-13
C 1.296786e-03 -2.240970e-14 -8.460102e-14 3.832545e-01 -9.099747e-14 -2.075335e-14
O -1.157285e+00 8.845236e-14 9.981868e-14 -5.480606e-01 1.042076e-13 5.301426e-14
3
Lattice="1.800000e+01 0.000000e+00 0.000000e+00 0.000000e+00 1.800000e+01 0.000000e+00 0.000000e+00 0.000000e+00 1.800000e+01" Properties=species:S:1:pos:R:3:force:R:3 energy=4.132087e-03 dipole="-2.889812e-02 9.170418e-16 7.082759e-15" pol="2.575818e+01 1.049301e-10 -2.402428e-10 1.049301e-10 1.200365e+01 1.852135e-12 -2.402428e-10 1.852135e-12 1.200365e+01" pbc="T T T"
O 1.164227e+00 -4.271205e-13 -5.481231e-13 -1.569443e-01 5.178454e-14 1.201990e-13
C -1.796610e-03 -9.169461e-14 -1.931032e-13 1.219291e+00 -3.083690e-13 -3.624572e-13
O -1.155402e+00 2.558892e-13 1.608912e-13 -1.062424e+00 2.271531e-13 3.435049e-13
3
Lattice="1.800000e+01 0.000000e+00 0.000000e+00 0.000000e+00 1.800000e+01 0.000000e+00 0.000000e+00 0.000000e+00 1.800000e+01" Properties=species:S:1:pos:R:3:force:R:3 energy=4.574648e-03 dipole="1.781465e-02 -1.546487e-14 -5.562587e-15" pol="2.565112e+01 -2.800581e-10 1.516560e-10 -2.800581e-10 1.197377e+01 -1.304034e-12 1.516560e-10 -1.304034e-12 1.197377e+01" pbc="T T T"
O 1.159089e+00 -5.201820e-13 -6.150522e-13 1.103891e+00 -4.143239e-13 -3.524192e-13
C 5.492385e-03 -1.181143e-13 -2.393363e-13 -7.627562e-01 3.288445e-13 2.729905e-13
O -1.155738e+00 3.024232e-13 1.419763e-13 -3.410877e-01 1.113937e-13 1.491149e-13
3
Lattice="1.800000e+01 0.000000e+00 0.000000e+00 0.000000e+00 1.800000e+01 0.000000e+00 0.000000e+00 0.000000e+00 1.800000e+01" Properties=species:S:1:pos:R:3:force:R:3 energy=1.189328e-02 dipole="-4.401945e-02 2.568943e-14 1.366461e-14" pol="2.565902e+01 -2.728800e-10 1.405437e-10 -2.728800e-10 1.197844e+01 4.589939e-12 1.405437e-10 4.589939e-12 1.197844e+01" pbc="T T T"
O 1.162776e+00 -7.501421e-13 -7.212950e-13 -2.018863e-01 1.432329e-13 1.118266e-13
C -4.148545e-03 -1.953174e-13 -3.550879e-13 1.884890e+00 -1.028462e-12 -6.004919e-13
O -1.152208e+00 3.351010e-13 4.858170e-15 -1.683107e+00 8.863402e-13 5.713194e-13
3
Lattice="1.800000e+01 0.000000e+00 0.000000e+00 0.000000e+00 1.800000e+01 0.000000e+00 0.000000e+00 0.000000e+00 1.800000e+01" Properties=species:S:1:pos:R:3:force:R:3 energy=6.994852e-03 dipole="3.676478e-02 -1.113072e-14 -4.587816e-15" pol="2.573598e+01 1.279261e-10 3.517933e-10 1.279261e-10 1.199847e+01 -6.724398e-13 3.517933e-10 -6.724398e-13 1.199847e+01" pbc="T T T"
O 1.159827e+00 -9.409528e-13 -7.324843e-13 1.301729e+00 -6.570474e-13 -2.622996e-13
C 8.444552e-03 -2.984380e-13 -4.672305e-13 -1.556660e+00 6.991043e-13 3.009900e-13
O -1.158727e+00 3.329470e-13 -2.025278e-13 2.550246e-01 -1.726815e-14 8.014615e-15
3
Lattice="1.800000e+01 0.000000e+00 0.000000e+00 0.000000e+00 1.800000e+01 0.000000e+00 0.000000e+00 0.000000e+00 1.800000e+01" Properties=species:S:1:pos:R:3:force:R:3 energy=4.510898e-03 dipole="-2.590639e-02 1.944978e-14 4.471350e-15" pol="2.570923e+01 -2.385237e-10 3.485352e-10 -2.385237e-10 1.199010e+01 3.536000e-12 3.485352e-10 3.536000e-12 1.199010e+01" pbc="T T T"
O 1.162931e+00 -1.025054e-12 -7.309402e-13 2.685791e-02 4.286213e-14 2.752354e-14
C -1.341167e-03 -3.453704e-13 -5.167495e-13 1.100476e+00 -7.261715e-13 -1.977118e-13
O -1.154496e+00 3.204238e-13 -3.046765e-13 -1.127403e+00 6.861894e-13 2.598264e-13
3
Lattice="1.800000e+01 0.000000e+00 0.000000e+00 0.000000e+00 1.800000e+01 0.000000e+00 0.000000e+00 0.000000e+00 1.800000e+01" Properties=species:S:1:pos:R:3:force:R:3 energy=5.287967e-03 dipole="3.859060e-02 -3.928874e-14 -1.051355e-14" pol="2.594975e+01 -1.699193e-10 -3.960935e-10 -1.699193e-10 1.205664e+01 1.899154e-12 -3.960935e-10 1.899154e-12 1.205664e+01" pbc="T T T"
O 1.164526e+00 -1.073956e-12 -7.363371e-13 7.705054e-01 -5.146013e-13 -2.327452e-13
C 8.758180e-03 -3.982416e-13 -5.661806e-13 -1.585781e+00 1.110121e-12 3.267576e-13
O -1.163678e+00 3.182422e-13 -3.807974e-13 8.153702e-01 -6.284780e-13 -1.823808e-13
3
Lattice="1.800000e+01 0.000000e+00 0.000000e+00 0.000000e+00 1.800000e+01 0.000000e+00 0.000000e+00 0.000000e+00 1.800000e+01" Properties=species:S:1:pos:R:3:force:R:3 energy=1.685366e-03 dipole="5.373278e-03 4.041772e-15 3.145360e-15" pol="2.570351e+01 -6.660786e-11 -4.203554e-12 -6.660786e-11 1.198752e+01 -4.728569e-13 -4.203554e-12 -4.728569e-13 1.198752e+01" pbc="T T T"
O 1.161005e+00 -1.170842e-12 -8.010036e-13 6.907842e-01 -2.839461e-13 -3.330176e-14
C 3.533138e-03 -4.462325e-13 -6.658771e-13 -2.283149e-01 -7.459487e-14 -1.114927e-13
O -1.156244e+00 2.536923e-13 -5.390670e-13 -4.624543e-01 4.153590e-13 2.084055e-13
3
Lattice="1.800000e+01 0.000000e+00 0.000000e+00 0.000000e+00 1.800000e+01 0.000000e+00 0.000000e+00 0.000000e+00 1.800000e+01" Properties=species:S:1:pos:R:3:force:R:3 energy=-7.154428e-04 dipole="1.174507e-02 8.763151e-15 4.842618e-15" pol="2.591404e+01 -7.891019e-11 -5.726677e-10 -7.891019e-11 1.204453e+01 -1.461775e-12 -5.726677e-10 -1.461775e-12 1.204453e+01" pbc="T T T"
O 1.165391e+00 -1.244187e-12 -8.786708e-13 2.769118e-01 1.509239e-14 1.237375e-14
C 4.532428e-03 -5.123551e-13 -7.529127e-13 -4.845336e-01 3.626395e-14 -6.568042e-14
O -1.161395e+00 1.901314e-13 -6.387135e-13 2.076541e-01 1.088517e-14 4.102941e-15
3
Lattice="1.800000e+01 0.000000e+00 0.000000e+00 0.000000e+00 1.800000e+01 0.000000e+00 0.000000e+00 0.000000e+00 1.800000e+01" Properties=species:S:1:pos:R:3:force:R:3 energy=8.212895e-03 dipole="-3.285715e-02 2.948538e-14 4.010848e-15" pol="2.564899e+01 9.063931e-11 8.606779e-12 9.063931e-11 1.197438e+01 -2.340421e-12 8.606779e-12 -2.340421e-12 1.197438e+01" pbc="T T T"
O 1.161924e+00 -1.286573e-12 -9.590442e-13 4.256872e-02 6.635181e-14 3.515413e-15
C -2.432354e-03 -5.740630e-13 -8.303698e-13 1.408033e+00 -9.880381e-13 -2.148899e-13
O -1.152710e+00 1.140988e-13 -7.102646e-13 -1.450683e+00 9.244015e-13 2.406907e-13
3
Lattice="1.800000e+01 0.000000e+00 0.000000e+00 0.000000e+00 1.800000e+01 0.000000e+00 0.000000e+00 0.000000e+00 1.800000e+01" Properties=species:S:1:pos:R:3:force:R:3 energy=5.243659e-03 dipole="2.827784e-02 -2.124795e-14 -6.550495e-15" pol="2.570403e+01 -2.612280e-10 6.556031e-10 -2.612280e-10 1.198890e+01 1.179438e-12 6.556031e-10 1.179438e-12 1.198890e+01" pbc="T T T"
O 1.159612e+00 -1.339473e-12 -1.121346e-12 1.195086e+00 -7.491059e-13 -2.175935e-13
C 7.092219e-03 -6.978428e-13 -9.715123e-13 -1.202206e+00 7.142395e-13 1.908922e-13
O -1.157562e+00 -3.790844e-14 -8.126540e-13 7.194087e-03 -3.010267e-15 -3.137955e-14
3
Lattice="1.800000e+01 0.000000e+00 0.000000e+00 0.000000e+00 1.800000e+01 0.000000e+00 0.000000e+00 0.000000e+00 1.800000e+01" Properties=species:S:1:pos:R:3:force:R:3 energy=4.490099e-03 dipole="-3.057731e-02 1.442836e-14 4.175040e-15" pol="2.576319e+01 2.404194e-10 -2.748863e-10 2.404194e-10 1.200517e+01 -3.990903e-13 -2.748863e-10 -3.990903e-13 1.200517e+01" pbc="T T T"
O 1.164388e+00 -1.403536e-12 -1.334046e-12 -2.025900e-01 6.239184e-14 6.005955e-14
C -2.104461e-03 -8.173106e-13 -1.107334e-12 1.289330e+00 -6.486196e-13 -2.812526e-13
O -1.155455e+00 -2.337984e-13 -8.815953e-13 -1.086822e+00 5.910235e-13 2.208775e-13
3
Lattice="1.800000e+01 0.000000e+00 0.000000e+00 0.000000e+00 1.800000e+01 0.000000e+00 0.000000e+00 0.000000e+00 1.800000e+01" Properties=species:S:1:pos:R:3:force:R:3 energy=7.085519e-03 dipole="-4.200649e-02 1.107276e-14 4.531056e-15" pol="2.583879e+01 7.589193e-10 -4.903317e-10 7.589193e-10 1.202708e+01 -3.292822e-12 -4.903317e-10 -3.292822e-12 1.202708e+01" pbc="T T T"
O 1.166706e+00 -1.579935e-12 -1.812619e-12 -6.103284e-01 1.989342e-13 2.005307e-13
C -3.917260e-03 -1.114547e-12 -1.442160e-12 1.753648e+00 -5.489590e-13 -5.194609e-13
O -1.156451e+00 -6.335237e-13 -1.065349e-12 -1.143425e+00 4.215394e-13 3.866791e-13
3
Lattice="1.800000e+01 0.000000e+00 0.000000e+00 0.000000e+00 1.800000e+01 0.000000e+00 0.000000e+00 0.000000e+00 1.800000e+01" Properties=species:S:1:pos:R:3:force:R:3 energy=4.994229e-03 dipole="-1.671834e-02 4.146513e-14 1.165980e-14" pol="2.623057e+01 -1.830144e-10 -5.675032e-11 -1.830144e-10 1.212955e+01 -6.058559e-13 -5.675032e-11 -6.058559e-13 1.212955e+01" pbc="T T T"
O 1.174140e+00 -1.770495e-12 -2.122964e-12 -1.071360e+00 6.413019e-13 5.009833e-13
C -6.553462e-08 -1.360975e-12 -1.730850e-12 6.596779e-01 -7.258941e-13 -3.981978e-13
O -1.166863e+00 -1.018577e-12 -1.356276e-12 4.116537e-01 1.029696e-13 -3.588296e-14
3
Lattice="1.800000e+01 0.000000e+00 0.000000e+00 0.000000e+00 1.800000e+01 0.000000e+00 0.000000e+00 0.000000e+00 1.800000e+01" Properties=species:S:1:pos:R:3:force:R:3 energy=1.046073e-02 dipole="-3.845344e-02 3.731309e-14 1.792843e-14" pol="2.624455e+01 7.190583e-10 4.358999e-10 7.190583e-10 1.213598e+01 9.667004e-13 4.358999e-10 9.667004e-13 1.213598e+01" pbc="T T T"
O 1.175625e+00 -1.930891e-12 -2.410034e-12 -1.502934e+00 4.640498e-13 4.404816e-13
C -3.460383e-03 -1.741183e-12 -2.131436e-12 1.515936e+00 -7.479201e-13 -5.275029e-13
O -1.165804e+00 -1.621123e-12 -1.874910e-12 -1.306099e-02 3.263924e-13 8.449315e-14
3
Lattice="1.800000e+01 0.000000e+00 0.000000e+00 0.000000e+00 1.800000e+01 0.000000e+00 0.000000e+00 0.000000e+00 1.800000e+01" Properties=species:S:1:pos:R:3:force:R:3 energy=5.379249e-03 dipole="2.146953e-02 -5.189019e-15 -3.402381e-15" pol="2.564712e+01 -4.919337e-10 -8.741222e-12 -4.919337e-10 1.197290e+01 -3.099999e-12 -8.741222e-12 -3.099999e-12 1.197290e+01" pbc="T T T"
O 1.158677e+00 -2.025428e-12 -2.512767e-12 1.196603e+00 -1.450126e-13 -1.784798e-13
C 5.963588e-03 -1.941179e-12 -2.323054e-12 -9.198612e-01 6.343274e-14 1.716998e-13
O -1.155949e+00 -1.851579e-12 -2.127160e-12 -2.766854e-01 5.079082e-15 6.331661e-14
3
Lattice="1.800000e+01 0.000000e+00 0.000000e+00 0.000000e+00 1.800000e+01 0.000000e+00 0.000000e+00 0.000000e+00 1.800000e+01" Properties=species:S:1:pos:R:3:force:R:3 energy=5.423080e-03 dipole="-3.287975e-02 3.446717e-14 8.534217e-15" pol="2.612126e+01 -1.551934e-10 8.669673e-11 -1.551934e-10 1.210205e+01 4.917202e-13 8.669673e-11 4.917202e-13 1.210205e+01" pbc="T T T"
O 1.172534e+00 -2.398028e-12 -2.898047e-12 -1.116800e+00 2.716319e-13 1.673284e-13
C -2.588300e-03 -2.325974e-12 -2.769308e-12 1.318454e+00 -5.251296e-13 -2.654914e-13
O -1.163442e+00 -2.316400e-12 -2.653673e-12 -2.017213e-01 2.460561e-13 4.367972e-14
3
Lattice="1.800000e+01 0.000000e+00 0.000000e+00 0.000000e+00 1.800000e+01 0.000000e+00 0.000000e+00 0.000000e+00 1.800000e+01" Properties=species:S:1:pos:R:3:force:R:3 energy=1.073454e-02 dipole="4.023460e-02 -1.637240e-14 -3.177819e-15" pol="2.564910e+01 -1.011458e-11 2.227457e-10 -1.011458e-11 1.197524e+01 -2.553918e-12 2.227457e-10 -2.553918e-12 1.197524e+01" pbc="T T T"
O 1.157521e+00 -2.653508e-12 -3.203928e-12 1.621801e+00 -1.843334e-13 -1.894373e-13
C 8.853829e-03 -2.598394e-12 -3.065148e-12 -1.724828e+00 2.500333e-13 1.740983e-13
O -1.157052e+00 -2.517807e-12 -2.927189e-12 1.031234e-01 -1.343978e-13 4.585836e-14
3
Lattice="1.800000e+01 0.000000e+00 0.000000e+00 0.000000e+00 1.800000e+01 0.000000e+00 0.000000e+00 0.000000e+00 1.800000e+01" Properties=species:S:1:pos:R:3:force:R:3 energy=4.918440e-04 dipole="-1.361216e-02 1.978891e-14 2.363116e-15" pol="2.579563e+01 -1.032298e-10 5.599867e-14 -1.032298e-10 1.201269e+01 1.564099e-12 5.599867e-14 1.564099e-12 1.201269e+01" pbc="T T T"
O 1.164057e+00 -3.622551e-12 -4.209544e-12 5.395368e-02 1.053204e-13 1.304572e-13
C 4.219020e-04 -3.240129e-12 -3.886709e-12 5.710278e-01 -4.554581e-13 -2.239427e-13
O -1.157358e+00 -2.895663e-12 -3.565684e-12 -6.250199e-01 3.243387e-13 1.912168e-13
3
Lattice="1.800000e+01 0.000000e+00 0.000000e+00 0.000000e+00 1.800000e+01 0.000000e+00 0.000000e+00 0.000000e+00 1.800000e+01" Properties=species:S:1:pos:R:3:force:R:3 energy=5.587899e-03 dipole="-1.903547e-02 7.481811e-16 -4.868386e-15" pol="2.623796e+01 4.518370e-11 1.856973e-10 4.518370e-11 1.213171e+01 -1.673089e-12 1.856973e-10 -1.673089e-12 1.213171e+01" pbc="T T T"
O 1.174330e+00 -3.924914e-12 -4.497209e-12 -1.132299e+00 4.156040e-13 2.525629e-13
C -4.733152e-04 -3.483998e-12 -4.167648e-12 7.503819e-01 -2.162142e-13 -1.855316e-14
O -1.166989e+00 -3.034572e-12 -3.814082e-12 3.818854e-01 -1.917575e-13 -2.271979e-13
3
Lattice="1.800000e+01 0.000000e+00 0.000000e+00 0.000000e+00 1.800000e+01 0.000000e+00 0.000000e+00 0.000000e+00 1.800000e+01" Properties=species:S:1:pos:R:3:force:R:3 energy=2.397844e-03 dipole="-1.665106e-03 1.280153e-14 -2.429063e-14" pol="2.618413e+01 -1.277414e-10 -3.999296e-11 -1.277414e-10 1.211660e+01 7.005150e-13 -3.999296e-11 7.005150e-13 1.211660e+01" pbc="T T T"
O 1.172077e+00 -5.063389e-12 -5.398886e-12 -6.699003e-01 5.850343e-13 -1.381089e-13
C 2.231552e-03 -4.387293e-12 -5.262118e-12 6.609043e-02 -3.293008e-13 3.209178e-13
O -1.166890e+00 -3.748124e-12 -5.081048e-12 6.038067e-01 -3.121309e-13 -2.468972e-13
3
Lattice="1.800000e+01 0.000000e+00 0.000000e+00 0.000000e+00 1.800000e+01 0.000000e+00 0.000000e+00 0.000000e+00 1.800000e+01" Properties=species:S:1:pos:R:3:force:R:3 energy=3.649849e-03 dipole="2.887471e-02 -1.835550e-14 4.592566e-15" pol="2.578348e+01 -9.835352e-10 -9.689568e-10 -9.835352e-10 1.201050e+01 3.449540e-14 -9.689568e-10 3.449540e-14 1.201050e+01" pbc="T T T"
O 1.161170e+00 -5.449892e-12 -5.805775e-12 9.938673e-01 -6.091932e-13 -7.734847e-14
C 6.989733e-03 -4.750424e-12 -5.654804e-12 -1.213976e+00 6.984107e-13 7.044588e-14
O -1.159607e+00 -4.048013e-12 -5.512530e-12 2.201863e-01 -1.291619e-13 4.027256e-14
3
Lattice="1.800000e+01 0.000000e+00 0.000000e+00 0.000000e+00 1.800000e+01 0.000000e+00 0.000000e+00 0.000000e+00 1.800000e+01" Properties=species:S:1:pos:R:3:force:R:3 energy=6.995072e-03 dipole="4.017233e-02 -4.896661e-14 1.765111e-14" pol="2.608232e+01 -2.709412e-10 8.502517e-11 -2.709412e-10 1.209266e+01 -1.031898e-12 8.502517e-11 -1.031898e-12 1.209266e+01" pbc="T T T"
O 1.167166e+00 -5.606613e-12 -6.012018e-12 4.611993e-01 -4.380705e-13 4.443100e-15
C 8.799735e-03 -4.926981e-12 -5.826182e-12 -1.620457e+00 1.398464e-12 -1.171275e-13
O -1.166981e+00 -4.181683e-12 -5.683826e-12 1.159343e+00 -8.754397e-13 1.158961e-13
3
Lattice="1.800000e+01 0.000000e+00 0.000000e+00 0.000000e+00 1.800000e+01 0.000000e+00 0.000000e+00 0.000000e+00 1.800000e+01" Properties=species:S:1:pos:R:3:force:R:3 energy=1.126031e-03 dipole="7.641165e-03 -2.381006e-14 1.793519e-14" pol="2.612463e+01 -4.069771e-11 3.917906e-10 -4.069771e-11 1.210082e+01 -2.393357e-12 3.917906e-10 -2.393357e-12 1.210082e+01" pbc="T T T"
O 1.170149e+00 -5.851314e-12 -6.349734e-12 -3.381674e-01 9.308674e-14 1.807973e-13
C 3.663549e-03 -5.161260e-12 -6.123237e-12 -3.059810e-01 4.318900e-13 -3.073322e-13
O -1.166139e+00 -4.434092e-12 -5.938763e-12 6.441650e-01 -5.057437e-13 1.449207e-13
3
Lattice="1.800000e+01 0.000000e+00 0.000000e+00 0.000000e+00 1.800000e+01 0.000000e+00 0.000000e+00 0.000000e+00 1.800000e+01" Properties=species:S:1:pos:R:3:force:R:3 energy=-1.311094e-03 dipole="4.472015e-04 -2.955772e-14 2.008462e-14" pol="2.594777e+01 1.005828e-10 3.890776e-10 1.005828e-10 1.205336e+01 1.164113e-13 3.890776e-10 1.164113e-13 1.205336e+01" pbc="T T T"
O 1.166586e+00 -6.007683e-12 -6.595553e-12 -4.481530e-02 -2.416980e-13 1.977791e-13
C 2.518546e-03 -5.346077e-12 -6.331522e-12 -1.835164e-02 3.879237e-13 -3.509169e-13
O -1.161742e+00 -4.627320e-12 -6.111935e-12 6.316815e-02 -2.513854e-13 1.542083e-13
3
Lattice="1.800000e+01 0.000000e+00 0.000000e+00 0.000000e+00 1.800000e+01 0.000000e+00 0.000000e+00 0.000000e+00 1.800000e+01" Properties=species:S:1:pos:R:3:force:R:3 energy=1.174189e-02 dipole="-4.197261e-02 1.050353e-14 1.135400e-14" pol="2.563940e+01 2.571283e-10 3.680766e-10 2.571283e-10 1.197281e+01 -2.543744e-13 3.680766e-10 -2.543744e-13 1.197281e+01" pbc="T T T"
O 1.161948e+00 -6.177288e-12 -6.863494e-12 -1.123935e-01 5.393413e-14 7.228471e-14
C -4.097615e-03 -5.525525e-12 -6.576366e-12 1.801973e+00 -8.724222e-13 -5.330825e-13
O -1.152165e+00 -4.858908e-12 -6.298002e-12 -1.689678e+00 9.210144e-13 4.690190e-13
3
Lattice="1.800000e+01 0.000000e+00 0.000000e+00 0.000000e+00 1.800000e+01 0.000000e+00 0.000000e+00 0.000000e+00 1.800000e+01" Properties=species:S:1:pos:R:3:force:R:3 energy=2.676461e-03 dipole="5.742131e-03 1.195471e-14 -9.051308e-15" pol="2.566916e+01 3.752596e-11 4.964310e-10 3.752596e-11 1.197822e+01 7.563722e-13 4.964310e-10 7.563722e-13 1.197822e+01" pbc="T T T"
O 1.159930e+00 -6.465824e-12 -7.340967e-12 7.902073e-01 -2.840090e-13 -2.825774e-13
C 3.317964e-03 -5.852638e-12 -7.015378e-12 -2.451725e-01 -1.098798e-13 1.979624e-13
O -1.155755e+00 -5.268994e-12 -6.667933e-12 -5.450191e-01 3.961927e-13 8.033622e-14
3
Lattice="1.800000e+01 0.000000e+00 0.000000e+00 0.000000e+00 1.800000e+01 0.000000e+00 0.000000e+00 0.000000e+00 1.800000e+01" Properties=species:S:1:pos:R:3:force:R:3 energy=8.070436e-03 dipole="4.044783e-02 2.581664e-15 -4.054308e-14" pol="2.613422e+01 3.575272e-10 4.834265e-10 3.575272e-10 1.210668e+01 -6.898364e-13 4.834265e-10 -6.898364e-13 1.210668e+01" pbc="T T T"
O 1.168246e+00 -6.713588e-12 -7.709249e-12 3.345297e-01 5.923649e-14 -2.870725e-13
C 8.790551e-03 -6.141520e-12 -7.389528e-12 -1.619734e+00 3.565318e-13 8.940355e-13
O -1.168224e+00 -5.612387e-12 -7.008495e-12 1.285283e+00 -3.585165e-13 -6.202055e-13
3
Lattice="1.800000e+01 0.000000e+00 0.000000e+00 0.000000e+00 1.800000e+01 0.000000e+00 0.000000e+00 0.000000e+00 1.800000e+01" Properties=species:S:1:pos:R:3:force:R:3 energy=1.059410e-02 dipole="-3.996617e-02 3.699914e-14 -1.472856e-14" pol="2.623358e+01 4.751565e-10 -3.318905e-10 4.751565e-10 1.213330e+01 1.657172e-12 -3.318905e-10 1.657172e-12 1.213330e+01" pbc="T T T"
O 1.175144e+00 -8.292763e-12 -9.941814e-12 -1.504941e+00 3.858726e-13 7.331845e-14
C -4.013925e-03 -8.101315e-12 -9.806741e-12 1.578170e+00 -6.840768e-13 1.124816e-13
O -1.165776e+00 -7.972594e-12 -9.631198e-12 -7.329154e-02 2.368205e-13 -5.323432e-14
3
Lattice="1.800000e+01 0.000000e+00 0.000000e+00 0.000000e+00 1.800000e+01 0.000000e+00 0.000000e+00 0.000000e+00 1.800000e+01" Properties=species:S:1:pos:R:3:force:R:3 energy=2.648849e-03 dipole="2.557420e-02 6.345445e-15 -1.860281e-14" pol="2.606962e+01 2.554823e-10 -1.373723e-10 2.554823e-10 1.208731e+01 -3.732218e-13 -1.373723e-10 -3.732218e-13 1.208731e+01" pbc="T T T"
O 1.167606e+00 -9.228861e-12 -1.146464e-11 1.748050e-01 2.446120e-14 -1.565226e-13
C 6.286179e-03 -9.181070e-12 -1.114201e-11 -1.032620e+00 -1.376667e-13 3.990619e-13
O -1.166117e+00 -9.151242e-12 -1.080295e-11 8.578737e-01 1.309889e-15 -2.975733e-13
3
Lattice="1.800000e+01 0.000000e+00 0.000000e+00 0.000000e+00 1.800000e+01 0.000000e+00 0.000000e+00 0.000000e+00 1.800000e+01" Properties=species:S:1:pos:R:3:force:R:3 energy=-1.154891e-03 dipole="-4.598291e-03 9.547123e-15 -4.773068e-15" pol="2.588685e+01 -4.370298e-10 4.527420e-11 -4.370298e-10 1.203701e+01 -4.836721e-12 4.527420e-11 -4.836721e-12 1.203701e+01" pbc="T T T"
O 1.165281e+00 -9.945295e-12 -1.235644e-11 5.704689e-03 4.009455e-14 -4.687465e-14
C 1.503134e-03 -9.854666e-12 -1.202446e-11 1.903989e-01 -1.611102e-13 2.510109e-14
O -1.160292e+00 -9.781597e-12 -1.167790e-11 -1.961165e-01 9.122085e-14 5.772249e-14
3
Lattice="1.800000e+01 0.000000e+00 0.000000e+00 0.000000e+00 1.800000e+01 0.000000e+00 0.000000e+00 0.000000e+00 1.800000e+01" Properties=species:S:1:pos:R:3:force:R:3 energy=1.021196e-02 dipole="4.274123e-02 -5.406652e-15 -1.119019e-14" pol="2.618849e+01 -6.601251e-10 -4.366062e-10 -6.601251e-10 1.212168e+01 -2.768083e-12 -4.366062e-10 -2.768083e-12 1.212168e+01" pbc="T T T"
O 1.169092e+00 -1.065878e-11 -1.304264e-11 2.474530e-01 -5.204234e-14 -3.704839e-14
C 8.948043e-03 -1.044483e-11 -1.278869e-11 -1.698832e+00 2.002607e-13 4.096950e-13
O -1.169777e+00 -1.023554e-11 -1.252830e-11 1.451453e+00 -1.662371e-13 -3.459313e-13
3
Lattice="1.800000e+01 0.000000e+00 0.000000e+00 0.000000e+00 1.800000e+01 0.000000e+00 0.000000e+00 0.000000e+00 1.800000e+01" Properties=species:S:1:pos:R:3:force:R:3 energy=5.835475e-03 dipole="-3.951020e-02 2.574482e-14 8.016058e-16" pol="2.600280e+01 3.933458e-10 -3.658851e-10 3.933458e-10 1.207110e+01 -4.183705e-12 -3.658851e-10 -4.183705e-12 1.207110e+01" pbc="T T T"
O 1.169804e+00 -1.101515e-11 -1.334781e-11 -9.594410e-01 3.405514e-13 5.883689e-14
C -4.032796e-03 -1.070491e-11 -1.314519e-11 1.611599e+00 -6.344235e-13 -1.756755e-13
O -1.160779e+00 -1.042700e-11 -1.292853e-11 -6.522497e-01 2.910719e-13 1.386600e-13
3
Lattice="1.800000e+01 0.000000e+00 0.000000e+00 0.000000e+00 1.800000e+01 0.000000e+00 0.000000e+00 0.000000e+00 1.800000e+01" Properties=species:S:1:pos:R:3:force:R:3 energy=1.784826e-03 dipole="-2.524567e-02 1.963489e-14 -8.798846e-15" pol="2.585987e+01 6.061327e-10 -5.057047e-12 6.061327e-10 1.203082e+01 -1.119364e-12 -5.057047e-12 -1.119364e-12 1.203082e+01" pbc="T T T"
O 1.165785e+00 -1.130364e-11 -1.360628e-11 -3.400186e-01 2.028456e-13 -1.121615e-13
C -1.786599e-03 -1.093008e-11 -1.343713e-11 1.049894e+00 -5.195827e-13 -3.443127e-15
O -1.158480e+00 -1.058492e-11 -1.324448e-11 -7.099442e-01 2.804747e-13 -5.404011e-16
3
Lattice="1.800000e+01 0.000000e+00 0.000000e+00 0.000000e+00 1.800000e+01 0.000000e+00 0.000000e+00 0.000000e+00 1.800000e+01" Properties=species:S:1:pos:R:3:force:R:3 energy=8.882083e-03 dipole="-3.542894e-02 4.817351e-15 5.969265e-15" pol="2.622480e+01 -4.984430e-10 -3.192975e-10 -4.984430e-10 1.213019e+01 1.374300e-12 -3.192975e-10 1.374300e-12 1.213019e+01" pbc="T T T"
O 1.174535e+00 -1.199749e-11 -1.433291e-11 -1.403523e+00 4.800545e-13 2.245659e-13
C -3.465874e-03 -1.151399e-11 -1.416750e-11 1.400319e+00 -4.953480e-13 -2.931994e-13
O -1.166049e+00 -1.101457e-11 -1.400715e-11 3.146422e-03 -1.572291e-13 -1.512617e-14
3
Lattice="1.800000e+01 0.000000e+00 0.000000e+00 0.000000e+00 1.800000e+01 0.000000e+00 0.000000e+00 0.000000e+00 1.800000e+01" Properties=species:S:1:pos:R:3:force:R:3 energy=5.829518e-03 dipole="-3.997562e-02 2.089666e-14 -1.791613e-15" pol="2.590423e+01 -6.190916e-10 -5.540537e-10 -6.190916e-10 1.204452e+01 -3.206510e-12 -5.540537e-10 -3.206510e-12 1.204452e+01" pbc="T T T"
O 1.167544e+00 -1.240312e-11 -1.478942e-11 -7.314075e-01 3.395102e-13 1.204119e-13
C -4.146557e-03 -1.184481e-11 -1.461848e-11 1.653381e+00 -8.188028e-13 -1.726509e-13
O -1.158591e+00 -1.129605e-11 -1.443707e-11 -9.220732e-01 4.868244e-13 1.760467e-13
3
Lattice="1.800000e+01 0.000000e+00 0.000000e+00 0.000000e+00 1.800000e+01 0.000000e+00 0.000000e+00 0.000000e+00 1.800000e+01" Properties=species:S:1:pos:R:3:force:R:3 energy=3.312025e-03 dipole="-1.348434e-02 -1.516139e-14 1.563365e-14" pol="2.567108e+01 2.924774e-10 -2.689351e-10 2.924774e-10 1.197897e+01 7.506795e-13 -2.689351e-10 7.506795e-13 1.197897e+01" pbc="T T T"
O 1.160760e+00 -1.303111e-11 -1.554998e-11 3.782784e-01 -3.736404e-13 6.144308e-14
C -6.961227e-06 -1.239259e-11 -1.529355e-11 5.756693e-01 4.771710e-15 -3.454981e-13
O -1.154993e+00 -1.171035e-11 -1.506705e-11 -9.539844e-01 3.813399e-13 2.371029e-13
3
Lattice="1.800000e+01 0.000000e+00 0.000000e+00 0.000000e+00 1.800000e+01 0.000000e+00 0.000000e+00 0.000000e+00 1.800000e+01" Properties=species:S:1:pos:R:3:force:R:3 energy=5.585300e-03 dipole="-2.796258e-02 6.279574e-17 1.076992e-14" pol="2.618064e+01 4.451254e-10 -5.469742e-10 4.451254e-10 1.211733e+01 3.251724e-12 -5.469742e-10 3.251724e-12 1.211733e+01" pbc="T T T"
O 1.173077e+00 -1.351034e-11 -1.615579e-11 -1.164880e+00 5.746561e-13 3.197293e-13
C -2.342782e-03 -1.279031e-11 -1.584818e-11 1.111652e+00 -3.463361e-13 -3.938106e-13
O -1.165608e+00 -1.203049e-11 -1.555752e-11 5.317530e-02 -3.447910e-13 6.478123e-14
3
Lattice="1.800000e+01 0.000000e+00 0.000000e+00 0.000000e+00 1.800000e+01 0.000000e+00 0.000000e+00 0.000000e+00 1.800000e+01" Properties=species:S:1:pos:R:3:force:R:3 energy=8.182764e-03 dipole="3.577965e-02 -4.882533e-14 -7.917285e-16" pol="2.619828e+01 3.266773e-11 2.516225e-11 3.266773e-11 1.212313e+01 -5.731726e-12 2.516225e-11 -5.731726e-12 1.212313e+01" pbc="T T T"
O 1.169633e+00 -1.386777e-11 -1.662653e-11 7.066891e-02 -2.118934e-13 7.448044e-14
C 7.716152e-03 -1.311627e-11 -1.628993e-11 -1.419503e+00 1.343288e-12 2.646255e-13
O -1.169760e+00 -1.230036e-11 -1.596531e-11 1.348897e+00 -1.098519e-12 -3.972097e-13
3
Lattice="1.800000e+01 0.000000e+00 0.000000e+00 0.000000e+00 1.800000e+01 0.000000e+00 0.000000e+00 0.000000e+00 1.800000e+01" Properties=species:S:1:pos:R:3:force:R:3 energy=7.225410e-03 dipole="4.197960e-02 -6.468412e-14 1.352562e-14" pol="2.605371e+01 -2.869449e-10 -4.286944e-10 -2.869449e-10 1.208523e+01 5.088903e-12 -4.286944e-10 5.088903e-12 1.208523e+01" pbc="T T T"
O 1.165966e+00 -1.447864e-11 -1.748048e-11 5.752832e-01 -5.701853e-13 1.895355e-14
C 8.637571e-03 -1.372034e-11 -1.711141e-11 -1.700392e+00 1.716362e-12 1.545591e-13
O -1.166874e+00 -1.287695e-11 -1.678160e-11 1.125200e+00 -1.051577e-12 -2.276233e-13
3
Lattice="1.800000e+01 0.000000e+00 0.000000e+00 0.000000e+00 1.800000e+01 0.000000e+00 0.000000e+00 0.000000e+00 1.800000e+01" Properties=species:S:1:pos:R:3:force:R:3 energy=4.531009e-03 dipole="9.846479e-03 2.974527e-14 -2.617054e-14" pol="2.623936e+01 -4.966275e-10 -4.217279e-10 -4.966275e-10 1.213149e+01 -4.942072e-13 -4.217279e-10 -4.942072e-13 1.213149e+01" pbc="T T T"
O 1.172146e+00 -1.467214e-11 -1.773073e-11 -5.730745e-01 6.690388e-13 3.808727e-14
C 3.576497e-03 -1.384790e-11 -1.741106e-11 -3.879738e-01 -3.383182e-13 4.766151e-13
O -1.169280e+00 -1.309024e-11 -1.704356e-11 9.610647e-01 -3.822268e-13 -4.924062e-13
3
Lattice="1.800000e+01 0.000000e+00 0.000000e+00 0.000000e+00 1.800000e+01 0.000000e+00 0.000000e+00 0.000000e+00 1.800000e+01" Properties=species:S:1:pos:R:3:force:R:3 energy=8.449713e-04 dipole="-7.402956e-03 -3.484024e-14 2.454329e-14" pol="2.611223e+01 -1.633005e-10 1.364477e-10 -1.633005e-10 1.209750e+01 3.983067e-13 1.364477e-10 3.983067e-13 1.209750e+01" pbc="T T T"
O 1.170243e+00 -1.582509e-11 -1.968392e-11 -6.094476e-01 -2.918688e-15 2.481565e-13
C 7.713489e-04 -1.533443e-11 -1.949215e-11 2.969602e-01 4.157365e-13 -4.202364e-13
O -1.165488e+00 -1.476822e-11 -1.934855e-11 3.124710e-01 -4.502117e-13 1.745043e-13
3
Lattice="1.800000e+01 0.000000e+00 0.000000e+00 0.000000e+00 1.800000e+01 0.000000e+00 0.000000e+00 0.000000e+00 1.800000e+01" Properties=species:S:1:pos:R:3:force:R:3 energy=8.232909e-03 dipole="3.203423e-02 3.233473e-14 -4.163052e-14" pol="2.623431e+01 3.788077e-10 6.794710e-10 3.788077e-10 1.213223e+01 1.126293e-12 6.794710e-10 1.126293e-12 1.213223e+01" pbc="T T T"
O 1.170496e+00 -1.669347e-11 -2.134816e-11 -9.966294e-02 3.191243e-13 -2.951000e-13
C 6.945199e-03 -1.643849e-11 -2.118148e-11 -1.264194e+00 -3.878624e-13 7.310478e-13
O -1.170550e+00 -1.625974e-11 -2.093817e-11 1.363908e+00 9.107095e-14 -5.614184e-13
3
Lattice="1.800000e+01 0.000000e+00 0.000000e+00 0.000000e+00 1.800000e+01 0.000000e+00 0.000000e+00 0.000000e+00 1.800000e+01" Properties=species:S:1:pos:R:3:force:R:3 energy=3.060607e-06 dipole="1.344660e-02 -9.260246e-15 1.738729e-14" pol="2.583096e+01 1.997958e-10 -3.101926e-10 1.997958e-10 1.202222e+01 4.002246e-12 -3.101926e-10 4.002246e-12 1.202222e+01" pbc="T T T"
O 1.162549e+00 -1.729649e-11 -2.259877e-11 5.287159e-01 -9.298119e-14 -2.727149e-14
C 3.935170e-03 -1.729382e-11 -2.228090e-11 -5.612805e-01 1.251957e-13 -9.708497e-14
O -1.160469e+00 -1.727237e-11 -2.199322e-11 3.260250e-02 -3.829503e-14 1.449079e-13
3
Lattice="1.800000e+01 0.000000e+00 0.000000e+00 0.000000e+00 1.800000e+01 0.000000e+00 0.000000e+00 0.000000e+00 1.800000e+01" Properties=species:S:1:pos:R:3:force:R:3 energy=1.682177e-04 dipole="-9.010262e-04 -9.537446e-15 2.330726e-14" pol="2.608943e+01 8.556558e-12 -2.528024e-10 8.556558e-12 1.209134e+01 -5.665576e-14 -2.528024e-10 -5.665576e-14 1.209134e+01" pbc="T T T"
O 1.169181e+00 -1.813226e-11 -2.411152e-11 -4.245334e-01 -2.181826e-13 2.577879e-13
C 1.628742e-03 -1.835897e-11 -2.378119e-11 3.621066e-02 2.376909e-13 -3.240313e-13
O -1.165533e+00 -1.856267e-11 -2.349556e-11 3.883206e-01 -1.096001e-13 6.558367e-14
3
Lattice="1.800000e+01 0.000000e+00 0.000000e+00 0.000000e+00 1.800000e+01 0.000000e+00 0.000000e+00 0.000000e+00 1.800000e+01" Properties=species:S:1:pos:R:3:force:R:3 energy=5.546616e-03 dipole="2.427169e-02 -6.557927e-15 1.589990e-14" pol="2.620728e+01 1.639066e-10 -2.788604e-10 1.639066e-10 1.212403e+01 -4.916629e-13 -2.788604e-10 -4.916629e-13 1.212403e+01" pbc="T T T"
O 1.170264e+00 -1.837898e-11 -2.459212e-11 -1.973805e-01 -1.763985e-13 1.912296e-13
C 5.588523e-03 -1.870327e-11 -2.429319e-11 -9.611399e-01 -5.106611e-14 -1.805669e-13
O -1.169645e+00 -1.900090e-11 -2.404286e-11 1.158563e+00 1.565328e-13 -3.140554e-14
3
Lattice="1.800000e+01 0.000000e+00 0.000000e+00 0.000000e+00 1.800000e+01 0.000000e+00 0.000000e+00 0.000000e+00 1.800000e+01" Properties=species:S:1:pos:R:3:force:R:3 energy=4.023332e-03 dipole="3.124763e-02 2.288264e-14 4.235072e-15" pol="2.580043e+01 1.038808e-10 -1.590492e-10 1.038808e-10 1.201533e+01 3.993395e-13 -1.590492e-10 3.993395e-13 1.201533e+01" pbc="T T T"
O 1.160620e+00 -1.915890e-11 -2.591603e-11 1.001763e+00 4.571684e-13 -5.456024e-14
C 6.578634e-03 -1.959926e-11 -2.574084e-11 -1.310755e+00 -6.602339e-13 1.123230e-13
O -1.160906e+00 -2.007277e-11 -2.557715e-11 3.090753e-01 1.771970e-13 8.588147e-14
3
Lattice="1.800000e+01 0.000000e+00 0.000000e+00 0.000000e+00 1.800000e+01 0.000000e+00 0.000000e+00 0.000000e+00 1.800000e+01" Properties=species:S:1:pos:R:3:force:R:3 energy=4.581352e-03 dipole="2.414786e-02 1.381171e-14 -2.109648e-14" pol="2.617460e+01 2.075810e-10 -2.588733e-10 2.075810e-10 1.211528e+01 2.052657e-12 -2.588733e-10 2.052657e-12 1.211528e+01" pbc="T T T"
O 1.169470e+00 -1.932850e-11 -2.621905e-11 -1.190561e-01 -3.353501e-14 -2.268838e-13
C 5.494553e-03 -1.979840e-11 -2.607125e-11 -9.606489e-01 -3.273305e-13 5.117386e-13
O -1.168976e+00 -2.027431e-11 -2.587642e-11 1.079751e+00 4.170921e-13 -2.964561e-13
3
Lattice="1.800000e+01 0.000000e+00 0.000000e+00 0.000000e+00 1.800000e+01 0.000000e+00 0.000000e+00 0.000000e+00 1.800000e+01" Properties=species:S:1:pos:R:3:force:R:3 energy=1.039054e-04 dipole="-1.799483e-02 -2.018695e-14 2.482182e-14" pol="2.592103e+01 -7.103384e-10 2.648732e-10 -7.103384e-10 1.204674e+01 -2.609555e-12 2.648732e-10 -2.609555e-12 1.204674e+01" pbc="T T T"
O 1.166264e+00 -1.952047e-11 -2.659457e-11 -3.494097e-01 -2.315263e-13 2.846228e-13
C -1.157319e-03 -2.002129e-11 -2.638775e-11 7.417496e-01 5.808616e-13 -4.904126e-13
O -1.160811e+00 -2.048656e-11 -2.622817e-11 -3.923885e-01 -2.993168e-13 2.604375e-13
3
Lattice="1.800000e+01 0.000000e+00 0.000000e+00 0.000000e+00 1.800000e+01 0.000000e+00 0.000000e+00 0.000000e+00 1.800000e+01" Properties=species:S:1:pos:R:3:force:R:3 energy=1.051168e-02 dipole="4.020152e-02 -3.868797e-15 -2.234127e-15" pol="2.565533e+01 -5.265184e-10 -3.366186e-10 -5.265184e-10 1.197694e+01 -1.563893e-12 -3.366186e-10 -1.563893e-12 1.197694e+01" pbc="T T T"
O 1.156657e+00 -2.071774e-11 -2.887718e-11 1.603677e+00 5.964791e-13 -4.319414e-13
C 7.842604e-03 -2.121104e-11 -2.856167e-11 -1.721899e+00 -4.771155e-13 3.345720e-13
O -1.158199e+00 -2.168169e-11 -2.826160e-11 1.183178e-01 -9.235888e-14 6.576393e-15
3
Lattice="1.800000e+01 0.000000e+00 0.000000e+00 0.000000e+00 1.800000e+01 0.000000e+00 0.000000e+00 0.000000e+00 1.800000e+01" Properties=species:S:1:pos:R:3:force:R:3 energy=7.851134e-03 dipole="-3.880998e-02 -2.220566e-14 2.228874e-14" pol="2.572998e+01 -7.629561e-11 -8.542652e-11 -7.629561e-11 1.199709e+01 2.040722e-13 -8.542652e-11 2.040722e-13 1.199709e+01" pbc="T T T"
O 1.162964e+00 -2.098482e-11 -2.939466e-11 -2.796442e-01 -1.305784e-13 1.805555e-13
C -4.499893e-03 -2.147151e-11 -2.907125e-11 1.644830e+00 7.916515e-13 -6.155178e-13
O -1.155299e+00 -2.193905e-11 -2.877713e-11 -1.365284e+00 -6.153032e-13 4.110250e-13
3
Lattice="1.800000e+01 0.000000e+00 0.000000e+00 0.000000e+00 1.800000e+01 0.000000e+00 0.000000e+00 0.000000e+00 1.800000e+01" Properties=species:S:1:pos:R:3:force:R:3 energy=8.661880e-03 dipole="4.136873e-02 4.502403e-14 7.402964e-16" pol="2.614632e+01 -8.277869e-10 -8.046938e-10 -8.277869e-10 1.211009e+01 -3.085054e-12 -8.046938e-10 -3.085054e-12 1.211009e+01" pbc="T T T"
O 1.167568e+00 -2.148069e-11 -3.030807e-11 3.240685e-01 3.319937e-13 2.459023e-15
C 8.049743e-03 -2.190584e-11 -3.002560e-11 -1.653899e+00 -1.061206e-12 2.232810e-13
O -1.169432e+00 -2.239913e-11 -2.975828e-11 1.329909e+00 7.824875e-13 -2.172972e-13
3
Lattice="1.800000e+01 0.000000e+00 0.000000e+00 0.000000e+00 1.800000e+01 0.000000e+00 0.000000e+00 0.000000e+00 1.800000e+01" Properties=species:S:1:pos:R:3:force:R:3 energy=7.197210e-03 dipole="2.731224e-02 -1.856951e-14 -2.064618e-14" pol="2.623830e+01 2.566808e-10 7.426336e-10 2.566808e-10 1.213267e+01 -6.519562e-13 7.426336e-10 -6.519562e-13 1.213267e+01" pbc="T T T"
O 1.170520e+00 -2.161467e-11 -3.058886e-11 -2.097999e-01 -3.206908e-13 -2.886237e-14
C 5.830270e-03 -2.208926e-11 -3.034785e-11 -1.076972e+00 3.592144e-14 4.911715e-13
O -1.170750e+00 -2.251389e-11 -3.007187e-11 1.286817e+00 2.368848e-13 -4.529204e-13
3
Lattice="1.800000e+01 0.000000e+00 0.000000e+00 0.000000e+00 1.800000e+01 0.000000e+00 0.000000e+00 0.000000e+00 1.800000e+01" Properties=species:S:1:pos:R:3:force:R:3 energy=9.049369e-03 dipole="-3.712982e-02 1.920931e-14 2.224183e-14" pol="2.621355e+01 1.647881e-10 -1.453115e-10 1.647881e-10 1.212744e+01 1.384848e-12 -1.453115e-10 1.384848e-12 1.212744e+01" pbc="T T T"
O 1.173683e+00 -2.236155e-11 -3.195062e-11 -1.408364e+00 -2.394288e-13 4.069434e-13
C -4.423230e-03 -2.268176e-11 -3.173523e-11 1.470031e+00 2.221047e-14 -4.858099e-13
O -1.166377e+00 -2.305630e-11 -3.155235e-11 -6.172948e-02 1.449736e-13 1.388491e-13
3
Lattice="1.800000e+01 0.000000e+00 0.000000e+00 0.000000e+00 1.800000e+01 0.000000e+00 0.000000e+00 0.000000e+00 1.800000e+01" Properties=species:S:1:pos:R:3:force:R:3 energy=7.181702e-03 dipole="-4.055130e-02 -3.772296e-14 4.858881e-15" pol="2.608569e+01 2.663468e-10 3.966723e-10 2.663468e-10 1.209362e+01 6.031731e-13 3.966723e-10 6.031731e-13 1.209362e+01" pbc="T T T"
O 1.170941e+00 -2.310406e-11 -3.331629e-11 -1.174126e+00 -3.932571e-13 9.039672e-14
C -4.995585e-03 -2.329009e-11 -3.312228e-11 1.635012e+00 7.082282e-13 -2.616037e-13
O -1.163352e+00 -2.340901e-11 -3.292546e-11 -4.609706e-01 -2.962342e-13 8.563470e-14
3
Lattice="1.800000e+01 0.000000e+00 0.000000e+00 0.000000e+00 1.800000e+01 0.000000e+00 0.000000e+00 0.000000e+00 1.800000e+01" Properties=species:S:1:pos:R:3:force:R:3 energy=6.540911e-03 dipole="-2.383126e-02 3.283975e-14 9.980044e-15" pol="2.624081e+01 -5.035187e-10 -2.633591e-10 -5.035187e-10 1.213294e+01 -3.844237e-12 -2.633591e-10 -3.844237e-12 1.213294e+01" pbc="T T T"
O 1.173503e+00 -2.330081e-11 -3.367561e-11 -1.228395e+00 1.700565e-13 2.621992e-13
C -2.391229e-03 -2.337910e-11 -3.346129e-11 9.392286e-01 -4.445545e-13 -2.877916e-13
O -1.167910e+00 -2.352769e-11 -3.326223e-11 2.891278e-01 2.157045e-13 -8.091750e-16
3
Lattice="1.800000e+01 0.000000e+00 0.000000e+00 0.000000e+00 1.800000e+01 0.000000e+00 0.000000e+00 0.000000e+00 1.800000e+01" Properties=species:S:1:pos:R:3:force:R:3 energy=8.882552e-03 dipole="3.554489e-02 -3.334012e-14 -1.803382e-14" pol="2.622372e+01 -1.803373e-10 2.424387e-10 -1.803373e-10 1.212992e+01 1.368215e-12 2.424387e-10 1.368215e-12 1.212992e+01" pbc="T T T"
O 1.169479e+00 -2.396734e-11 -3.525117e-11 2.026591e-03 -2.762700e-13 -1.021477e-13
C 6.945543e-03 -2.399117e-11 -3.498536e-11 -1.405124e+00 5.394683e-13 4.274681e-13
O -1.171055e+00 -2.394298e-11 -3.470152e-11 1.403156e+00 -3.029230e-13 -4.361730e-13
3
Lattice="1.800000e+01 0.000000e+00 0.000000e+00 0.000000e+00 1.800000e+01 0.000000e+00 0.000000e+00 0.000000e+00 1.800000e+01" Properties=species:S:1:pos:R:3:force:R:3 energy=1.032860e-02 dipole="3.906610e-02 1.774795e-14 -1.301365e-14" pol="2.623456e+01 6.385333e-10 3.925661e-10 6.385333e-10 1.213341e+01 4.299798e-12 3.925661e-10 4.299798e-12 1.213341e+01" pbc="T T T"
O 1.169406e+00 -2.498968e-11 -3.737852e-11 5.126240e-02 2.290181e-13 1.974617e-14
C 7.420473e-03 -2.472869e-11 -3.708666e-11 -1.542320e+00 -4.439018e-14 3.463004e-13
O -1.171570e+00 -2.451517e-11 -3.678768e-11 1.491119e+00 -3.199153e-14 -3.752886e-13
3
Lattice="1.800000e+01 0.000000e+00 0.000000e+00 0.000000e+00 1.800000e+01 0.000000e+00 0.000000e+00 0.000000e+00 1.800000e+01" Properties=species:S:1:pos:R:3:force:R:3 energy=6.894131e-03 dipole="-4.022229e-02 4.202972e-15 -1.003875e-14" pol="2.580382e+01 -6.026372e-10 8.906013e-13 -6.026372e-10 1.201733e+01 -2.745832e-12 8.906013e-13 -2.745832e-12 1.201733e+01" pbc="T T T"
O 1.164223e+00 -2.686858e-11 -4.168010e-11 -4.904965e-01 1.416610e-13 -7.357775e-14
C -5.226418e-03 -2.641850e-11 -4.148005e-11 1.687242e+00 -5.008958e-13 -7.309306e-14
O -1.157371e+00 -2.595072e-11 -4.124912e-11 -1.196847e+00 3.832043e-13 6.118006e-14
3
Lattice="1.800000e+01 0.000000e+00 0.000000e+00 0.000000e+00 1.800000e+01 0.000000e+00 0.000000e+00 0.000000e+00 1.800000e+01" Properties=species:S:1:pos:R:3:force:R:3 energy=3.586050e-03 dipole="-6.255165e-03 3.550340e-15 1.477900e-14" pol="2.621821e+01 3.074546e-10 7.338706e-12 3.074546e-10 1.212574e+01 2.850797e-12 7.338706e-12 2.850797e-12 1.212574e+01" pbc="T T T"
O 1.171583e+00 -2.773611e-11 -4.433027e-11 -8.415177e-01 3.056867e-13 3.899202e-13
C -2.222219e-05 -2.739623e-11 -4.397726e-11 2.471851e-01 -9.927041e-14 -2.579021e-13
O -1.168906e+00 -2.706205e-11 -4.365094e-11 5.943215e-01 -1.570374e-13 -5.188856e-14
3
Lattice="1.800000e+01 0.000000e+00 0.000000e+00 0.000000e+00 1.800000e+01 0.000000e+00 0.000000e+00 0.000000e+00 1.800000e+01" Properties=species:S:1:pos:R:3:force:R:3 energy=5.535888e-03 dipole="-3.930435e-02 2.203682e-14 5.183303e-15" pol="2.592517e+01 -8.741388e-11 -2.285468e-10 -8.741388e-11 1.205009e+01 -2.331982e-12 -2.285468e-10 -2.331982e-12 1.205009e+01" pbc="T T T"
O 1.166811e+00 -2.786046e-11 -4.474170e-11 -7.694790e-01 2.182953e-13 3.049407e-13
C -5.216195e-03 -2.756372e-11 -4.440724e-11 1.620772e+00 -4.834765e-13 -4.003338e-13
O -1.160277e+00 -2.727934e-11 -4.406653e-11 -8.513904e-01 2.202355e-13 1.799527e-13
3
Lattice="1.800000e+01 0.000000e+00 0.000000e+00 0.000000e+00 1.800000e+01 0.000000e+00 0.000000e+00 0.000000e+00 1.800000e+01" Properties=species:S:1:pos:R:3:force:R:3 energy=3.477089e-03 dipole="-6.409894e-03 -1.225990e-14 -2.675456e-15" pol="2.564522e+01 3.145533e-10 3.649793e-10 3.145533e-10 1.197174e+01 -1.535391e-12 3.649793e-10 -1.535391e-12 1.197174e+01" pbc="T T T"
O 1.158606e+00 -2.798280e-11 -4.515065e-11 5.942027e-01 -2.320505e-13 -1.872312e-13
C -6.344341e-05 -2.775078e-11 -4.483083e-11 2.746115e-01 1.065889e-13 -2.197080e-15
O -1.155987e+00 -2.749311e-11 -4.449185e-11 -8.688315e-01 1.036953e-13 1.403608e-13
3
Lattice="1.800000e+01 0.000000e+00 0.000000e+00 0.000000e+00 1.800000e+01 0.000000e+00 0.000000e+00 0.000000e+00 1.800000e+01" Properties=species:S:1:pos:R:3:force:R:3 energy=7.447732e-03 dipole="3.838390e-02 -1.819143e-14 -3.253492e-14" pol="2.613749e+01 8.294246e-10 3.465094e-10 8.294246e-10 1.210722e+01 1.518700e-12 3.465094e-10 1.518700e-12 1.210722e+01" pbc="T T T"
O 1.166922e+00 -2.851962e-11 -4.661031e-11 2.807631e-01 -1.652101e-13 -2.387314e-13
C 6.932556e-03 -2.841647e-11 -4.639757e-11 -1.536164e+00 4.538600e-13 7.179509e-13
O -1.169720e+00 -2.827269e-11 -4.612685e-11 1.255476e+00 -2.742307e-13 -4.298448e-13
3
Lattice="1.800000e+01 0.000000e+00 0.000000e+00 0.000000e+00 1.800000e+01 0.000000e+00 0.000000e+00 0.000000e+00 1.800000e+01" Properties=species:S:1:pos:R:3:force:R:3 energy=9.625633e-03 dipole="3.673281e-02 8.949665e-15 7.663014e-15" pol="2.564461e+01 -1.139425e-10 -3.901426e-10 -1.139425e-10 1.197360e+01 -2.371163e-12 -3.901426e-10 -2.371163e-12 1.197360e+01" pbc="T T T"
O 1.155891e+00 -2.891765e-11 -4.751713e-11 1.552547e+00 -6.022923e-14 -1.335178e-13
C 6.559027e-03 -2.880796e-11 -4.732582e-11 -1.575394e+00 -2.865556e-14 6.392582e-14
O -1.158510e+00 -2.872249e-11 -4.715541e-11 2.293653e-02 5.677658e-14 8.360467e-14
3
Lattice="1.800000e+01 0.000000e+00 0.000000e+00 0.000000e+00 1.800000e+01 0.000000e+00 0.000000e+00 0.000000e+00 1.800000e+01" Properties=species:S:1:pos:R:3:force:R:3 energy=6.926311e-03 dipole="4.223068e-02 -2.587250e-14 -3.518512e-14" pol="2.601734e+01 8.470648e-10 5.265493e-10 8.470648e-10 1.207545e+01 2.544053e-12 5.265493e-10 2.544053e-12 1.207545e+01" pbc="T T T"
O 1.163808e+00 -3.061884e-11 -5.119399e-11 6.754120e-01 -2.536517e-13 -2.870915e-13
C 7.343491e-03 -3.037963e-11 -5.097289e-11 -1.719361e+00 6.090033e-13 6.886484e-13
O -1.167395e+00 -3.010082e-11 -5.069965e-11 1.044044e+00 -3.347793e-13 -4.746524e-13
3
Lattice="1.800000e+01 0.000000e+00 0.000000e+00 0.000000e+00 1.800000e+01 0.000000e+00 0.000000e+00 0.000000e+00 1.800000e+01" Properties=species:S:1:pos:R:3:force:R:3 energy=8.901770e-03 dipole="3.727427e-02 -1.589061e-14 -1.683210e-14" pol="2.567241e+01 7.860080e-10 6.429152e-10 7.860080e-10 1.198124e+01 1.608515e-12 6.429152e-10 1.608515e-12 1.198124e+01" pbc="T T T"
O 1.156319e+00 -3.105883e-11 -5.209972e-11 1.488124e+00 -3.978104e-13 -4.236626e-13
C 6.478664e-03 -3.073704e-11 -5.181679e-11 -1.592434e+00 4.993061e-13 4.703730e-13
O -1.159342e+00 -3.040191e-11 -5.151297e-11 1.044019e-01 -8.919967e-14 -4.630089e-14
3
Lattice="1.800000e+01 0.000000e+00 0.000000e+00 0.000000e+00 1.800000e+01 0.000000e+00 0.000000e+00 0.000000e+00 1.800000e+01" Properties=species:S:1:pos:R:3:force:R:3 energy=3.384507e-03 dipole="-3.078779e-02 -1.331728e-14 -1.427108e-14" pol="2.602846e+01 -3.500561e-10 8.942222e-10 -3.500561e-10 1.207684e+01 2.813031e-12 8.942222e-10 2.813031e-12 1.207684e+01" pbc="T T T"
O 1.168377e+00 -3.140307e-11 -5.281894e-11 -8.578721e-01 1.427330e-13 8.280363e-14
C -4.200650e-03 -3.104504e-11 -5.251442e-11 1.250665e+00 -1.446743e-13 -1.499038e-14
O -1.163451e+00 -3.064816e-11 -5.216332e-11 -3.928652e-01 1.401099e-14 -2.619675e-14
3
Lattice="1.800000e+01 0.000000e+00 0.000000e+00 0.000000e+00 1.800000e+01 0.000000e+00 0.000000e+00 0.000000e+00 1.800000e+01" Properties=species:S:1:pos:R:3:force:R:3 energy=7.264161e-03 dipole="-2.992262e-02 2.902771e-14 2.784878e-14" pol="2.622126e+01 1.911069e-10 -1.759458e-10 1.911069e-10 1.212844e+01 -1.314818e-12 -1.759458e-10 -1.314818e-12 1.212844e+01" pbc="T T T"
O 1.172500e+00 -3.332881e-11 -5.697124e-11 -1.295306e+00 6.009545e-13 4.274872e-13
C -4.252143e-03 -3.295116e-11 -5.676762e-11 1.182900e+00 -6.959985e-13 -5.843870e-13
O -1.167984e+00 -3.262129e-11 -5.661561e-11 1.123564e-01 1.426618e-13 1.886412e-13
3
Lattice="1.800000e+01 0.000000e+00 0.000000e+00 0.000000e+00 1.800000e+01 0.000000e+00 0.000000e+00 0.000000e+00 1.800000e+01" Properties=species:S:1:pos:R:3:force:R:3 energy=-3.859798e-04 dipole="1.232255e-02 -2.680879e-14 -1.986891e-14" pol="2.599727e+01 -2.518639e-10 -1.146705e-09 -2.518639e-10 1.206691e+01 -2.714196e-12 -1.146705e-09 -2.714196e-12 1.206691e+01" pbc="T T T"
O 1.165007e+00 -3.349059e-11 -5.739743e-11 7.673902e-02 -1.255764e-13 -1.637068e-13
C 2.401743e-03 -3.319848e-11 -5.726872e-11 -5.024356e-01 4.300209e-13 4.127582e-13
O -1.165534e+00 -3.285824e-11 -5.709289e-11 4.257283e-01 -3.072493e-13 -1.932096e-13
3
Lattice="1.800000e+01 0.000000e+00 0.000000e+00 0.000000e+00 1.800000e+01 0.000000e+00 0.000000e+00 0.000000e+00 1.800000e+01" Properties=species:S:1:pos:R:3:force:R:3 energy=2.618567e-03 dipole="-2.861757e-02 -1.467051e-14 -1.704482e-14" pol="2.585805e+01 6.515785e-10 -5.178015e-10 6.515785e-10 1.203065e+01 -1.313549e-12 -5.178015e-10 -1.313549e-12 1.203065e+01" pbc="T T T"
O 1.164164e+00 -3.410731e-11 -5.901644e-11 -4.012671e-01 -1.545584e-13 -1.887821e-13
C -4.079952e-03 -3.395835e-11 -5.892719e-11 1.190596e+00 8.163646e-14 1.358887e-13
O -1.159993e+00 -3.377386e-11 -5.879712e-11 -7.894060e-01 -5.735825e-14 3.652714e-14
3
Lattice="1.800000e+01 0.000000e+00 0.000000e+00 0.000000e+00 1.800000e+01 0.000000e+00 0.000000e+00 0.000000e+00 1.800000e+01" Properties=species:S:1:pos:R:3:force:R:3 energy=1.337759e-03 dipole="2.399460e-02 1.665890e-14 2.005350e-14" pol="2.597608e+01 -3.526877e-10 -1.782173e-10 -3.526877e-10 1.206203e+01 1.410638e-12 -1.782173e-10 1.410638e-12 1.206203e+01" pbc="T T T"
O 1.163703e+00 -3.462576e-11 -6.026908e-11 3.798077e-01 1.483783e-13 1.987264e-13
C 4.127086e-03 -3.450270e-11 -6.010993e-11 -9.816248e-01 -2.060131e-13 -2.070141e-13
O -1.165821e+00 -3.441579e-11 -5.999529e-11 6.018783e-01 9.601543e-14 4.310020e-14
3
Lattice="1.800000e+01 0.000000e+00 0.000000e+00 0.000000e+00 1.800000e+01 0.000000e+00 0.000000e+00 0.000000e+00 1.800000e+01" Properties=species:S:1:pos:R:3:force:R:3 energy=3.351549e-03 dipole="-1.744441e-02 4.869259e-15 1.319347e-14" pol="2.617268e+01 -2.050024e-11 1.654340e-10 -2.050024e-11 1.211417e+01 -3.620341e-12 1.654340e-10 -3.620341e-12 1.211417e+01" pbc="T T T"
O 1.170538e+00 -3.531442e-11 -6.188730e-11 -9.487260e-01 1.446128e-13 2.576651e-13
C -2.455163e-03 -3.522163e-11 -6.165690e-11 6.939893e-01 -2.034000e-13 -3.305943e-13
O -1.167867e+00 -3.514227e-11 -6.145245e-11 2.547027e-01 8.902134e-14 2.009944e-15
3
Lattice="1.800000e+01 0.000000e+00 0.000000e+00 0.000000e+00 1.800000e+01 0.000000e+00 0.000000e+00 0.000000e+00 1.800000e+01" Properties=species:S:1:pos:R:3:force:R:3 energy=7.411882e-03 dipole="-2.984889e-02 1.785592e-14 1.563448e-14" pol="2.564655e+01 -4.017620e-11 -9.881749e-10 -4.017620e-11 1.197342e+01 -3.195244e-13 -9.881749e-10 -3.195244e-13 1.197342e+01" pbc="T T T"
O 1.159276e+00 -3.587017e-11 -6.310527e-11 1.088356e-01 7.704459e-14 4.441578e-14
C -4.391709e-03 -3.574654e-11 -6.279313e-11 1.279381e+00 -2.892536e-13 -4.650853e-13
O -1.155271e+00 -3.565095e-11 -6.249884e-11 -1.388292e+00 2.670309e-13 4.846482e-13
3
Lattice="1.800000e+01 0.000000e+00 0.000000e+00 0.000000e+00 1.800000e+01 0.000000e+00 0.000000e+00 0.000000e+00 1.800000e+01" Properties=species:S:1:pos:R:3:force:R:3 energy=4.967147e-03 dipole="1.762878e-02 -2.002603e-14 -2.155625e-14" pol="2.563852e+01 5.207502e-10 5.572810e-10 5.207502e-10 1.197033e+01 -3.150704e-12 5.572810e-10 -3.150704e-12 1.197033e+01" pbc="T T T"
O 1.156276e+00 -3.700207e-11 -6.532665e-11 1.134022e+00 -3.273015e-13 -3.588334e-13
C 2.925184e-03 -3.676524e-11 -6.495792e-11 -7.561337e-01 3.758978e-13 3.588701e-13
O -1.157977e+00 -3.649591e-11 -6.456446e-11 -3.778425e-01 2.493910e-14 8.631215e-14
3
Lattice="1.800000e+01 0.000000e+00 0.000000e+00 0.000000e+00 1.800000e+01 0.000000e+00 0.000000e+00 0.000000e+00 1.800000e+01" Properties=species:S:1:pos:R:3:force:R:3 energy=3.603809e-03 dipole="3.055507e-02 -2.215988e-15 1.261160e-15" pol="2.605189e+01 1.556727e-10 -6.546877e-11 1.556727e-10 1.208311e+01 2.560411e-12 -6.546877e-11 2.560411e-12 1.208311e+01" pbc="T T T"
O 1.164770e+00 -3.767539e-11 -6.651869e-11 3.277154e-01 5.215018e-14 3.471029e-15
C 4.945882e-03 -3.732621e-11 -6.613697e-11 -1.237109e+00 2.851172e-13 2.174148e-13
O -1.168113e+00 -3.698278e-11 -6.577180e-11 9.094641e-01 -2.642349e-13 -1.887013e-13
3
Lattice="1.800000e+01 0.000000e+00 0.000000e+00 0.000000e+00 1.800000e+01 0.000000e+00 0.000000e+00 0.000000e+00 1.800000e+01" Properties=species:S:1:pos:R:3:force:R:3 energy=-1.076065e-03 dipole="-6.601706e-03 -5.115885e-15 -9.822724e-15" pol="2.596126e+01 -5.384989e-11 1.008001e-10 -5.384989e-11 1.205705e+01 1.796005e-12 1.008001e-10 1.796005e-12 1.205705e+01" pbc="T T T"
O 1.164909e+00 -3.883165e-11 -6.864177e-11 -2.222040e-01 5.380676e-14 4.332467e-14
C -9.836830e-04 -3.842773e-11 -6.839551e-11 2.705139e-01 -1.972403e-14 5.934247e-14
O -1.164024e+00 -3.801169e-11 -6.813234e-11 -4.832756e-02 -4.142221e-14 -4.948370e-14
3
Lattice="1.800000e+01 0.000000e+00 0.000000e+00 0.000000e+00 1.800000e+01 0.000000e+00 0.000000e+00 0.000000e+00 1.800000e+01" Properties=species:S:1:pos:R:3:force:R:3 energy=8.303264e-03 dipole="4.303907e-02 -1.228508e-15 1.359206e-15" pol="2.609892e+01 -6.274984e-10 1.093062e-10 -6.274984e-10 1.209761e+01 2.003391e-12 1.093062e-10 2.003391e-12 1.209761e+01" pbc="T T T"
O 1.167609e+00 -2.312013e-15 4.627201e-15 4.823420e-01 6.382591e-15 -2.578559e-14
C 9.514363e-03 -1.428317e-15 1.176681e-15 -1.732391e+00 2.622469e-14 -2.714936e-14
O -1.167246e+00 2.064518e-15 -1.645948e-15 1.250136e+00 -2.495404e-14 -2.090134e-14
3
Lattice="1.800000e+01 0.000000e+00 0.000000e+00 0.000000e+00 1.800000e+01 0.000000e+00 0.000000e+00 0.000000e+00 1.800000e+01" Properties=species:S:1:pos:R:3:force:R:3 energy=3.081336e-03 dipole="2.939361e-02 -2.120564e-15 5.296202e-16" pol="2.603411e+01 1.096930e-10 -2.214040e-10 1.096930e-10 1.207819e+01 -1.354937e-13 -2.214040e-10 -1.354937e-13 1.207819e+01" pbc="T T T"
O 1.167039e+00 -5.840972e-14 2.986688e-14 3.479473e-01 -5.293293e-14 2.846866e-15
C 7.355304e-03 8.026005e-15 7.282211e-15 -1.192998e+00 7.199098e-14 -3.217872e-15
O -1.165055e+00 7.531765e-14 -1.484398e-14 8.451198e-01 -6.228685e-14 5.565235e-15
3
Lattice="1.800000e+01 0.000000e+00 0.000000e+00 0.000000e+00 1.800000e+01 0.000000e+00 0.000000e+00 0.000000e+00 1.800000e+01" Properties=species:S:1:pos:R:3:force:R:3 energy=1.796323e-03 dipole="-3.617575e-03 -3.010318e-15 -1.229537e-15" pol="2.616050e+01 -1.484184e-10 -7.052065e-11 -1.484184e-10 1.211031e+01 5.297172e-13 -7.052065e-11 5.297172e-13 1.211031e+01" pbc="T T T"
O 1.171896e+00 -1.148684e-13 5.183683e-14 -6.515296e-01 8.908825e-14 -3.725746e-14
C 2.157887e-03 9.159966e-15 9.948428e-15 1.441128e-01 -6.393020e-14 2.257460e-14
O -1.166009e+00 1.301560e-13 -3.122812e-14 5.074095e-01 -3.880561e-14 1.069837e-14
3
Lattice="1.800000e+01 0.000000e+00 0.000000e+00 0.000000e+00 1.800000e+01 0.000000e+00 0.000000e+00 0.000000e+00 1.800000e+01" Properties=species:S:1:pos:R:3:force:R:3 energy=8.291138e-04 dipole="-2.189135e-02 9.163867e-16 -1.465426e-15" pol="2.590413e+01 -1.721138e-10 -6.804540e-10 -1.721138e-10 1.204248e+01 1.070561e-12 -6.804540e-10 1.070561e-12 1.204248e+01" pbc="T T T"
O 1.167162e+00 -2.265718e-13 1.041960e-13 -3.841739e-01 6.737919e-14 -7.930312e-14
C -7.043768e-04 1.369802e-15 1.661713e-14 9.046291e-01 -1.557126e-13 9.618092e-14
O -1.159126e+00 2.330190e-13 -7.157021e-14 -5.205142e-01 7.447476e-15 -4.695044e-14
3
Lattice="1.800000e+01 0.000000e+00 0.000000e+00 0.000000e+00 1.800000e+01 0.000000e+00 0.000000e+00 0.000000e+00 1.800000e+01" Properties=species:S:1:pos:R:3:force:R:3 energy=4.311458e-03 dipole="-1.057026e-02 9.011480e-15 3.886524e-15" pol="2.563053e+01 1.123834e-10 1.247066e-10 1.123834e-10 1.196786e+01 2.315605e-12 1.247066e-10 2.315605e-12 1.196786e+01" pbc="T T T"
O 1.160304e+00 -3.699276e-13 2.103028e-13 5.455379e-01 -6.319262e-14 1.395967e-13
C 1.083244e-03 -2.539339e-14 3.343126e-14 4.538190e-01 -1.471287e-13 3.856880e-14
O -1.153610e+00 3.158227e-13 -1.460350e-13 -9.993849e-01 2.653799e-13 -1.353290e-13
3
Lattice="1.800000e+01 0.000000e+00 0.000000e+00 0.000000e+00 1.800000e+01 0.000000e+00 0.000000e+00 0.000000e+00 1.800000e+01" Properties=species:S:1:pos:R:3:force:R:3 energy=5.755904e-03 dipole="-2.784556e-02 1.054101e-14 -3.992853e-15" pol="2.618775e+01 -2.433202e-10 -3.481647e-10 -2.433202e-10 1.211922e+01 -1.054960e-12 -3.481647e-10 -1.054960e-12 1.211922e+01" pbc="T T T"
O 1.173883e+00 -4.991374e-13 3.542186e-13 -1.179306e+00 4.653818e-13 -3.388048e-13
C -1.672056e-03 -6.700224e-14 5.314730e-14 1.105885e+00 -3.991705e-13 3.037848e-13
O -1.165121e+00 3.607948e-13 -2.470238e-13 7.337061e-02 -6.289477e-15 -9.010103e-15
3
Lattice="1.800000e+01 0.000000e+00 0.000000e+00 0.000000e+00 1.800000e+01 0.000000e+00 0.000000e+00 0.000000e+00 1.800000e+01" Properties=species:S:1:pos:R:3:force:R:3 energy=2.340434e-03 dipole="-4.568301e-03 -1.708218e-15 -8.887062e-15" pol="2.567854e+01 -2.842737e-10 -1.119174e-10 -2.842737e-10 1.198074e+01 1.791115e-13 -1.119174e-10 1.791115e-13 1.198074e+01" pbc="T T T"
O 1.161053e+00 -7.908197e-13 6.570068e-13 5.450363e-01 -3.241213e-13 3.094416e-13
C 2.016892e-03 -2.140649e-13 1.439949e-13 1.947904e-01 -5.489564e-14 1.090666e-13
O -1.155061e+00 3.713847e-13 -3.684045e-13 -7.398394e-01 3.416752e-13 -3.643005e-13
3
Lattice="1.800000e+01 0.000000e+00 0.000000e+00 0.000000e+00 1.800000e+01 0.000000e+00 0.000000e+00 0.000000e+00 1.800000e+01" Properties=species:S:1:pos:R:3:force:R:3 energy=4.083684e-03 dipole="-3.360150e-02 1.683611e-14 -1.726547e-14" pol="2.601940e+01 2.082581e-10 -1.268852e-10 2.082581e-10 1.207475e+01 2.279037e-12 -1.268852e-10 2.279037e-12 1.207475e+01" pbc="T T T"
O 1.170410e+00 -1.231454e-12 1.150251e-12 -8.890343e-01 5.690313e-13 -5.785612e-13
C -2.557144e-03 -5.104908e-13 4.184423e-13 1.366908e+00 -8.542156e-13 7.927331e-13
O -1.160983e+00 2.040568e-13 -3.127973e-13 -4.779530e-01 2.057758e-13 -3.125176e-13
3
Lattice="1.800000e+01 0.000000e+00 0.000000e+00 0.000000e+00 1.800000e+01 0.000000e+00 0.000000e+00 0.000000e+00 1.800000e+01" Properties=species:S:1:pos:R:3:force:R:3 energy=2.757515e-03 dipole="-4.052541e-04 -6.267005e-15 1.542265e-15" pol="2.566161e+01 3.849042e-10 7.124738e-10 3.849042e-10 1.197612e+01 2.473817e-12 7.124738e-10 2.473817e-12 1.197612e+01" pbc="T T T"
O 1.160424e+00 -1.280843e-12 1.205670e-12 6.783284e-01 -5.000968e-13 4.691019e-13
C 2.665773e-03 -5.734201e-13 4.683775e-13 1.731488e-02 1.234808e-13 1.569523e-14
O -1.154919e+00 1.526350e-13 -2.701097e-13 -6.956444e-01 4.121075e-13 -4.406859e-13
3
Lattice="1.800000e+01 0.000000e+00 0.000000e+00 0.000000e+00 1.800000e+01 0.000000e+00 0.000000e+00 0.000000e+00 1.800000e+01" Properties=species:S:1:pos:R:3:force:R:3 energy=8.359013e-03 dipole="-3.551781e-02 1.121204e-14 -2.095040e-14" pol="2.567068e+01 -3.971815e-10 -3.358003e-11 -3.971815e-10 1.198057e+01 -1.280064e-12 -3.358003e-11 -1.280064e-12 1.198057e+01" pbc="T T T"
O 1.162606e+00 -1.448201e-12 1.368398e-12 -6.550902e-02 -4.490789e-14 -1.616412e-13
C -2.806560e-03 -7.664577e-13 6.374371e-13 1.517619e+00 -7.855883e-13 9.253440e-13
O -1.152992e+00 -7.399251e-14 -8.917310e-14 -1.452199e+00 8.690672e-13 -9.189293e-13
3
Lattice="1.800000e+01 0.000000e+00 0.000000e+00 0.000000e+00 1.800000e+01 0.000000e+00 0.000000e+00 0.000000e+00 1.800000e+01" Properties=species:S:1:pos:R:3:force:R:3 energy=7.170881e-04 dipole="1.276827e-02 -4.977188e-15 1.034948e-14" pol="2.577582e+01 5.748486e-10 -6.720416e-10 5.748486e-10 1.200730e+01 1.126746e-12 -6.720416e-10 1.126746e-12 1.200730e+01" pbc="T T T"
O 1.162240e+00 -1.566433e-12 1.444027e-12 6.589743e-01 -3.680857e-13 4.011585e-13
C 4.724677e-03 -9.278077e-13 7.725838e-13 -5.371127e-01 2.827760e-13 -3.632434e-13
O -1.158280e+00 -2.857745e-13 9.022930e-14 -1.218255e-01 1.747139e-13 -2.979438e-14
3
Lattice="1.800000e+01 0.000000e+00 0.000000e+00 0.000000e+00 1.800000e+01 0.000000e+00 0.000000e+00 0.000000e+00 1.800000e+01" Properties=species:S:1:pos:R:3:force:R:3 energy=3.046772e-03 dipole="1.032683e-03 -1.567342e-14 9.168121e-15" pol="2.620619e+01 1.564336e-10 4.015009e-10 1.564336e-10 1.212249e+01 1.554898e-13 4.015009e-10 1.554898e-13 1.212249e+01" pbc="T T T"
O 1.172646e+00 -1.633527e-12 1.485633e-12 -6.695588e-01 2.121873e-13 -3.309212e-13
C 2.892368e-03 -1.037438e-12 8.510895e-13 -4.083534e-02 2.513258e-13 -1.314746e-13
O -1.167310e+00 -4.084807e-13 1.966506e-13 7.103961e-01 -5.482898e-13 4.470432e-13
3
Lattice="1.800000e+01 0.000000e+00 0.000000e+00 0.000000e+00 1.800000e+01 0.000000e+00 0.000000e+00 0.000000e+00 1.800000e+01" Properties=species:S:1:pos:R:3:force:R:3 energy=2.379256e-04 dipole="9.680723e-03 1.376876e-14 -6.002465e-16" pol="2.578533e+01 -1.224387e-10 -2.824075e-11 -1.224387e-10 1.200975e+01 1.529946e-13 -2.824075e-11 1.529946e-13 1.200975e+01" pbc="T T T"
O 1.162641e+00 -1.774062e-12 1.547880e-12 5.673123e-01 -2.014162e-13 1.957267e-13
C 4.242592e-03 -1.208933e-12 9.830164e-13 -4.066612e-01 -1.551260e-14 -5.559534e-14
O -1.158319e+00 -6.727398e-13 4.277185e-13 -1.606235e-01 1.868792e-13 -1.257644e-13
3
Lattice="1.800000e+01 0.000000e+00 0.000000e+00 0.000000e+00 1.800000e+01 0.000000e+00 0.000000e+00 0.000000e+00 1.800000e+01" Properties=species:S:1:pos:R:3:force:R:3 energy=2.531549e-03 dipole="5.065350e-03 2.240465e-14 -5.553416e-15" pol="2.618543e+01 2.079263e-10 5.727014e-11 2.079263e-10 1.211698e+01 2.249241e-12 5.727014e-11 2.249241e-12 1.211698e+01" pbc="T T T"
O 1.171939e+00 -2.233837e-12 1.741775e-12 -5.388774e-01 4.096726e-13 -2.981201e-13
C 3.529493e-03 -1.729892e-12 1.366535e-12 -2.010899e-01 -2.139981e-13 8.204174e-14
O -1.167082e+00 -1.264744e-12 1.007192e-12 7.399770e-01 -1.891821e-13 1.695518e-13
3
Lattice="1.800000e+01 0.000000e+00 0.000000e+00 0.000000e+00 1.800000e+01 0.000000e+00 0.000000e+00 0.000000e+00 1.800000e+01" Properties=species:S:1:pos:R:3:force:R:3 energy=2.837573e-03 dipole="2.457018e-02 1.434175e-15 4.555305e-15" pol="2.577013e+01 4.151013e-10 -7.116570e-11 4.151013e-10 1.200650e+01 -8.392882e-13 -7.116570e-11 -8.392882e-13 1.200650e+01" pbc="T T T"
O 1.161389e+00 -2.408337e-12 1.770164e-12 9.333660e-01 -3.416911e-13 1.521930e-13
C 6.568734e-03 -1.952653e-12 1.516343e-12 -1.034760e+00 3.565934e-13 -1.906328e-13
O -1.158813e+00 -1.505338e-12 1.263490e-12 1.014607e-01 4.298136e-15 1.558976e-14
3
Lattice="1.800000e+01 0.000000e+00 0.000000e+00 0.000000e+00 1.800000e+01 0.000000e+00 0.000000e+00 0.000000e+00 1.800000e+01" Properties=species:S:1:pos:R:3:force:R:3 energy=5.974813e-03 dipole="2.809634e-02 1.089418e-14 -7.718246e-15" pol="2.619335e+01 5.149961e-10 2.815651e-10 5.149961e-10 1.212075e+01 -2.739355e-12 2.815651e-10 -2.739355e-12 1.212075e+01" pbc="T T T"
O 1.170688e+00 -2.554882e-12 1.801374e-12 -8.196259e-02 2.993443e-13 -8.323224e-14
C 7.170306e-03 -2.103665e-12 1.626565e-12 -1.114977e+00 6.254143e-15 2.551843e-14
O -1.168564e+00 -1.697527e-12 1.469671e-12 1.196991e+00 -1.842030e-13 5.880169e-14
3
Lattice="1.800000e+01 0.000000e+00 0.000000e+00 0.000000e+00 1.800000e+01 0.000000e+00 0.000000e+00 0.000000e+00 1.800000e+01" Properties=species:S:1:pos:R:3:force:R:3 energy=3.574806e-03 dipole="1.279830e-02 -6.855395e-15 1.173505e-14" pol="2.565988e+01 -3.056333e-10 5.025491e-10 -3.056333e-10 1.197590e+01 1.157786e-12 5.025491e-10 1.157786e-12 1.197590e+01" pbc="T T T"
O 1.159603e+00 -3.050945e-12 2.045467e-12 9.691002e-01 -2.531346e-13 -3.863135e-14
C 4.723348e-03 -2.817058e-12 2.109148e-12 -5.472358e-01 1.646398e-13 -6.210464e-14
O -1.155642e+00 -2.570651e-12 2.163198e-12 -4.218298e-01 3.299153e-14 6.501607e-14
3
Lattice="1.800000e+01 0.000000e+00 0.000000e+00 0.000000e+00 1.800000e+01 0.000000e+00 0.000000e+00 0.000000e+00 1.800000e+01" Properties=species:S:1:pos:R:3:force:R:3 energy=-2.851746e-05 dipole="6.337206e-03 -1.981572e-14 9.243760e-15" pol="2.606800e+01 -7.267406e-10 -1.479731e-10 -7.267406e-10 1.208565e+01 1.883330e-12 -1.479731e-10 1.883330e-12 1.208565e+01" pbc="T T T"
O 1.169226e+00 -3.236390e-12 2.119766e-12 -2.248522e-01 -1.438360e-13 8.481086e-14
C 3.727295e-03 -3.094592e-12 2.269163e-12 -2.557944e-01 3.746394e-13 -1.153766e-13
O -1.164518e+00 -2.907245e-12 2.396184e-12 4.806617e-01 -2.354254e-13 6.026568e-14
3
Lattice="1.800000e+01 0.000000e+00 0.000000e+00 0.000000e+00 1.800000e+01 0.000000e+00 0.000000e+00 0.000000e+00 1.800000e+01" Properties=species:S:1:pos:R:3:force:R:3 energy=4.429065e-03 dipole="1.875348e-02 2.385652e-14 -1.493175e-14" pol="2.620329e+01 -7.866646e-12 3.995559e-10 -7.866646e-12 1.212244e+01 -2.517496e-12 3.995559e-10 -2.517496e-12 1.212244e+01" pbc="T T T"
O 1.171501e+00 -3.352424e-12 2.159052e-12 -3.028435e-01 2.711716e-13 -6.332434e-14
C 5.694386e-03 -3.194820e-12 2.327029e-12 -7.428845e-01 -3.066536e-13 3.166959e-13
O -1.168268e+00 -3.084954e-12 2.523236e-12 1.045762e+00 1.353065e-13 -1.739751e-13
3
Lattice="1.800000e+01 0.000000e+00 0.000000e+00 0.000000e+00 1.800000e+01 0.000000e+00 0.000000e+00 0.000000e+00 1.800000e+01" Properties=species:S:1:pos:R:3:force:R:3 energy=-8.336152e-05 dipole="1.628635e-02 -2.273386e-14 2.076160e-15" pol="2.589173e+01 -1.308998e-10 1.200130e-10 -1.308998e-10 1.203875e+01 1.118852e-12 1.200130e-10 1.118852e-12 1.203875e+01" pbc="T T T"
O 1.164650e+00 -3.898031e-12 2.257695e-12 4.315222e-01 -1.471851e-13 -2.342513e-14
C 5.282542e-03 -3.871550e-12 2.663423e-12 -6.740694e-01 3.403270e-13 1.380709e-13
O -1.161109e+00 -3.803062e-12 3.057647e-12 2.425920e-01 -1.474531e-13 -3.978812e-14
3
Lattice="1.800000e+01 0.000000e+00 0.000000e+00 0.000000e+00 1.800000e+01 0.000000e+00 0.000000e+00 0.000000e+00 1.800000e+01" Properties=species:S:1:pos:R:3:force:R:3 energy=-1.041568e-04 dipole="-2.115623e-03 1.108114e-14 -1.301361e-14" pol="2.607285e+01 -4.434114e-11 -9.266006e-11 -4.434114e-11 1.208689e+01 -9.468306e-13 -9.266006e-11 -9.468306e-13 1.208689e+01" pbc="T T T"
O 1.169838e+00 -5.487223e-12 2.640097e-12 -4.082335e-01 1.507365e-13 1.243705e-13
C 2.395670e-03 -5.240011e-12 3.174248e-12 8.531493e-02 -1.502162e-13 1.570445e-13
O -1.164130e+00 -5.009459e-12 3.735792e-12 3.229135e-01 -4.084204e-14 -2.085490e-13
3
Lattice="1.800000e+01 0.000000e+00 0.000000e+00 0.000000e+00 1.800000e+01 0.000000e+00 0.000000e+00 0.000000e+00 1.800000e+01" Properties=species:S:1:pos:R:3:force:R:3 energy=7.938394e-03 dipole="3.844343e-02 -2.595332e-14 -2.731625e-14" pol="2.572118e+01 -6.681466e-10 -1.003273e-10 -6.681466e-10 1.199465e+01 -1.125202e-12 -1.003273e-10 -1.125202e-12 1.199465e+01" pbc="T T T"
O 1.159410e+00 -6.120323e-12 2.716359e-12 1.380948e+00 -5.619045e-13 -7.555701e-13
C 8.728533e-03 -5.772282e-12 3.304831e-12 -1.631278e+00 6.393053e-13 9.725479e-13
O -1.158456e+00 -5.398212e-12 3.916425e-12 2.504260e-01 -1.542637e-13 -1.887874e-13
3
Lattice="1.800000e+01 0.000000e+00 0.000000e+00 0.000000e+00 1.800000e+01 0.000000e+00 0.000000e+00 0.000000e+00 1.800000e+01" Properties=species:S:1:pos:R:3:force:R:3 energy=6.320135e-03 dipole="-2.496958e-02 1.203380e-14 -6.272604e-15" pol="2.622724e+01 2.263729e-11 -3.625635e-10 2.263729e-11 1.212944e+01 -1.349585e-12 -3.625635e-10 -1.349585e-12 1.212944e+01" pbc="T T T"
O 1.174610e+00 -6.504111e-12 2.742987e-12 -1.217984e+00 4.686237e-13 4.895931e-13
C -1.221763e-03 -6.091153e-12 3.365489e-12 9.860263e-01 -4.451740e-13 -3.185924e-13
O -1.166186e+00 -5.690967e-12 4.018537e-12 2.319153e-01 -7.423313e-14 -2.877307e-13
3
Lattice="1.800000e+01 0.000000e+00 0.000000e+00 0.000000e+00 1.800000e+01 0.000000e+00 0.000000e+00 0.000000e+00 1.800000e+01" Properties=species:S:1:pos:R:3:force:R:3 energy=-5.883160e-04 dipole="1.161388e-02 2.154959e-15 4.322161e-15" pol="2.587600e+01 5.510543e-10 -1.096444e-10 5.510543e-10 1.203428e+01 -2.803257e-13 -1.096444e-10 -2.803257e-13 1.203428e+01" pbc="T T T"
O 1.164578e+00 -6.916882e-12 2.771831e-12 3.722621e-01 -1.055287e-13 -1.454858e-13
C 4.549114e-03 -6.487784e-12 3.436626e-12 -4.816952e-01 5.792699e-14 6.793366e-14
O -1.160487e+00 -6.068892e-12 4.082758e-12 1.094656e-01 -2.748660e-14 6.697940e-15
3
Lattice="1.800000e+01 0.000000e+00 0.000000e+00 0.000000e+00 1.800000e+01 0.000000e+00 0.000000e+00 0.000000e+00 1.800000e+01" Properties=species:S:1:pos:R:3:force:R:3 energy=2.387645e-03 dipole="1.375426e-02 8.783823e-15 -3.146425e-15" pol="2.570505e+01 7.879649e-11 -6.541112e-10 7.879649e-11 1.198819e+01 -1.667258e-12 -6.541112e-10 -1.667258e-12 1.198819e+01" pbc="T T T"
O 1.160573e+00 -7.765026e-12 2.885151e-12 8.686658e-01 -1.955792e-13 -3.616279e-13
C 4.874839e-03 -7.364410e-12 3.504544e-12 -5.843956e-01 1.051727e-14 2.411683e-13
O -1.156726e+00 -6.989239e-12 4.117688e-12 -2.842322e-01 2.555085e-13 2.451785e-13
3
Lattice="1.800000e+01 0.000000e+00 0.000000e+00 0.000000e+00 1.800000e+01 0.000000e+00 0.000000e+00 0.000000e+00 1.800000e+01" Properties=species:S:1:pos:R:3:force:R:3 energy=6.544934e-03 dipole="4.010495e-02 -1.247830e-15 -9.218622e-15" pol="2.582521e+01 -8.462041e-11 2.688322e-10 -8.462041e-11 1.202313e+01 5.077461e-13 2.688322e-10 5.077461e-13 1.202313e+01" pbc="T T T"
O 1.161655e+00 -8.037417e-12 2.933935e-12 1.136379e+00 -1.766081e-13 -4.826015e-13
C 9.005354e-03 -7.696224e-12 3.522203e-12 -1.677259e+00 2.816721e-13 6.821791e-13
O -1.160909e+00 -7.374315e-12 4.100038e-12 5.409818e-01 -9.817301e-14 -2.402412e-13
3
Lattice="1.800000e+01 0.000000e+00 0.000000e+00 0.000000e+00 1.800000e+01 0.000000e+00 0.000000e+00 0.000000e+00 1.800000e+01" Properties=species:S:1:pos:R:3:force:R:3 energy=5.222425e-03 dipole="-2.076693e-02 -1.162954e-14 3.691701e-15" pol="2.564765e+01 5.208802e-10 3.289672e-10 5.208802e-10 1.197300e+01 3.124099e-12 3.289672e-10 3.124099e-12 1.197300e+01" pbc="T T T"
O 1.161270e+00 -8.364844e-12 2.993285e-12 2.896322e-01 -2.196980e-13 -1.303231e-13
C -5.058069e-04 -8.162381e-12 3.525192e-12 8.896718e-01 4.292135e-14 -3.904446e-13
O -1.153384e+00 -7.929974e-12 4.063223e-12 -1.179358e+00 1.680639e-13 5.096467e-13
3
Lattice="1.800000e+01 0.000000e+00 0.000000e+00 0.000000e+00 1.800000e+01 0.000000e+00 0.000000e+00 0.000000e+00 1.800000e+01" Properties=species:S:1:pos:R:3:force:R:3 energy=4.257610e-03 dipole="-2.786783e-02 -1.230524e-14 -1.060452e-15" pol="2.573975e+01 4.740955e-10 -3.520308e-10 4.740955e-10 1.199855e+01 1.271325e-12 -3.520308e-10 1.271325e-12 1.199855e+01" pbc="T T T"
O 1.163763e+00 -8.631689e-12 3.013610e-12 -8.992350e-02 -1.054315e-13 -3.529995e-14
C -1.622254e-03 -8.505887e-12 3.513426e-12 1.178820e+00 6.290321e-14 -3.834945e-13
O -1.155037e+00 -8.347828e-12 4.029196e-12 -1.088971e+00 5.846971e-14 4.653251e-13
3
Lattice="1.800000e+01 0.000000e+00 0.000000e+00 0.000000e+00 1.800000e+01 0.000000e+00 0.000000e+00 0.000000e+00 1.800000e+01" Properties=species:S:1:pos:R:3:force:R:3 energy=5.048885e-05 dipole="7.354279e-04 1.371512e-14 5.670383e-15" pol="2.608294e+01 -4.394961e-10 -3.503630e-10 -4.394961e-10 1.208962e+01 -1.868972e-13 -3.503630e-10 -1.868972e-13 1.208962e+01" pbc="T T T"
O 1.169896e+00 -8.804563e-12 3.011612e-12 -3.756886e-01 1.602072e-13 3.679726e-13
C 2.844546e-03 -8.679051e-12 3.518591e-12 -2.956292e-02 -2.511026e-13 -2.241655e-13
O -1.164526e+00 -8.585134e-12 4.000272e-12 4.052533e-01 9.033133e-14 -5.982415e-14
3
Lattice="1.800000e+01 0.000000e+00 0.000000e+00 0.000000e+00 1.800000e+01 0.000000e+00 0.000000e+00 0.000000e+00 1.800000e+01" Properties=species:S:1:pos:R:3:force:R:3 energy=2.502128e-03 dipole="-1.789953e-02 6.926532e-15 -1.055007e-15" pol="2.572472e+01 5.574047e-10 2.441121e-10 5.574047e-10 1.199373e+01 1.750227e-12 2.441121e-10 1.750227e-12 1.199373e+01" pbc="T T T"
O 1.162866e+00 -9.028372e-12 3.030714e-12 1.485949e-01 1.532878e-14 -8.715437e-14
C -6.456020e-05 -8.943057e-12 3.491127e-12 7.584967e-01 -1.462333e-13 -2.940875e-13
O -1.155310e+00 -8.872263e-12 3.955502e-12 -9.071410e-01 1.424788e-13 3.717139e-13
3
Lattice="1.800000e+01 0.000000e+00 0.000000e+00 0.000000e+00 1.800000e+01 0.000000e+00 0.000000e+00 0.000000e+00 1.800000e+01" Properties=species:S:1:pos:R:3:force:R:3 energy=3.988124e-03 dipole="-2.983583e-02 2.971350e-14 1.426960e-14" pol="2.608907e+01 1.049438e-09 -7.971693e-10 1.049438e-09 1.209301e+01 -4.300872e-13 -7.971693e-10 -4.300872e-13 1.209301e+01" pbc="T T T"
O 1.171775e+00 -1.245856e-11 3.191520e-12 -9.843572e-01 5.339074e-13 1.213612e-13
C -1.973647e-03 -1.200187e-11 3.133990e-12 1.201637e+00 -7.078817e-13 -1.124640e-13
O -1.162786e+00 -1.158934e-11 3.043678e-12 -2.173455e-01 1.631398e-13 6.035488e-14
3
Lattice="1.800000e+01 0.000000e+00 0.000000e+00 0.000000e+00 1.800000e+01 0.000000e+00 0.000000e+00 0.000000e+00 1.800000e+01" Properties=species:S:1:pos:R:3:force:R:3 energy=4.422998e-03 dipole="-1.970349e-02 6.767955e-15 4.158375e-15" pol="2.566624e+01 3.767313e-10 1.730970e-10 3.767313e-10 1.197798e+01 2.228311e-12 1.730970e-10 2.228311e-12 1.197798e+01" pbc="T T T"
O 1.161635e+00 -1.296655e-11 3.206744e-12 2.630344e-01 1.038933e-14 1.106315e-13
C -3.414904e-04 -1.247432e-11 3.065974e-12 8.418822e-01 -3.774716e-13 -2.809108e-14
O -1.153872e+00 -1.198634e-11 2.909233e-12 -1.104969e+00 5.435331e-13 -5.692316e-14
3
Lattice="1.800000e+01 0.000000e+00 0.000000e+00 0.000000e+00 1.800000e+01 0.000000e+00 0.000000e+00 0.000000e+00 1.800000e+01" Properties=species:S:1:pos:R:3:force:R:3 energy=2.523107e-03 dipole="1.146561e-02 -1.474809e-14 1.116726e-14" pol="2.569014e+01 -1.257579e-10 -1.160735e-10 -1.257579e-10 1.198406e+01 1.303678e-12 -1.160735e-10 1.303678e-12 1.198406e+01" pbc="T T T"
O 1.160372e+00 -1.437150e-11 3.363297e-12 8.585136e-01 -5.098301e-13 3.573378e-13
C 4.516786e-03 -1.374975e-11 2.969282e-12 -4.881552e-01 3.152809e-13 -2.750435e-13
O -1.156256e+00 -1.311513e-11 2.557046e-12 -3.703268e-01 2.318113e-13 -6.655397e-14
3
Lattice="1.800000e+01 0.000000e+00 0.000000e+00 0.000000e+00 1.800000e+01 0.000000e+00 0.000000e+00 0.000000e+00 1.800000e+01" Properties=species:S:1:pos:R:3:force:R:3 energy=9.848168e-03 dipole="-3.810312e-02 -1.872352e-15 -2.177594e-14" pol="2.622930e+01 7.770259e-11 -2.216095e-10 7.770259e-11 1.213183e+01 -2.608505e-12 -2.216095e-10 -2.608505e-12 1.213183e+01" pbc="T T T"
O 1.175368e+00 -1.585762e-11 3.501115e-12 -1.461897e+00 6.952365e-13 -7.797236e-13
C -3.299696e-03 -1.516109e-11 2.911984e-12 1.505319e+00 -5.472752e-13 8.622315e-13
O -1.165384e+00 -1.442449e-11 2.340792e-12 -4.348233e-02 -1.589810e-13 -1.284492e-13
3
Lattice="1.800000e+01 0.000000e+00 0.000000e+00 0.000000e+00 1.800000e+01 0.000000e+00 0.000000e+00 0.000000e+00 1.800000e+01" Properties=species:S:1:pos:R:3:force:R:3 energy=2.473307e-03 dipole="2.557277e-02 -2.712614e-14 3.919965e-15" pol="2.580587e+01 7.873100e-10 -7.821994e-11 7.873100e-10 1.201625e+01 3.149892e-12 -7.821994e-11 3.149892e-12 1.201625e+01" pbc="T T T"
O 1.162136e+00 -1.637977e-11 3.560708e-12 8.602459e-01 -6.256020e-13 4.082088e-13
C 6.729270e-03 -1.568190e-11 2.906027e-12 -1.071623e+00 8.650356e-13 -4.037224e-13
O -1.159681e+00 -1.494669e-11 2.267072e-12 2.114472e-01 -2.207951e-13 3.569875e-15
3
Lattice="1.800000e+01 0.000000e+00 0.000000e+00 0.000000e+00 1.800000e+01 0.000000e+00 0.000000e+00 0.000000e+00 1.800000e+01" Properties=species:S:1:pos:R:3:force:R:3 energy=1.227071e-03 dipole="1.566230e-04 1.647167e-14 4.719481e-15" pol="2.613986e+01 9.572588e-11 -1.657465e-10 9.572588e-11 1.210480e+01 8.623666e-13 -1.657465e-10 8.623666e-13 1.210480e+01" pbc="T T T"
O 1.171211e+00 -1.700369e-11 3.634310e-12 -5.265916e-01 4.407853e-13 -2.432439e-13
C 2.753871e-03 -1.628857e-11 2.920538e-12 -6.255421e-03 -2.910789e-13 -1.111490e-13
O -1.165771e+00 -1.560962e-11 2.190157e-12 5.328474e-01 -2.370551e-13 3.451055e-13
3
Lattice="1.800000e+01 0.000000e+00 0.000000e+00 0.000000e+00 1.800000e+01 0.000000e+00 0.000000e+00 0.000000e+00 1.800000e+01" Properties=species:S:1:pos:R:3:force:R:3 energy=7.916099e-03 dipole="-3.428216e-02 1.401306e-14 -2.913655e-14" pol="2.567199e+01 7.488877e-11 -2.248432e-10 7.488877e-11 1.198079e+01 -4.596211e-12 -2.248432e-10 -4.596211e-12 1.198079e+01" pbc="T T T"
O 1.162569e+00 -1.730004e-11 3.661604e-12 -4.447484e-02 1.124196e-13 -1.306123e-13
C -2.614199e-03 -1.663462e-11 2.911744e-12 1.464461e+00 -7.480453e-13 1.101842e-12
O -1.153100e+00 -1.596470e-11 2.188638e-12 -1.420072e+00 7.892539e-13 -9.556401e-13
3
Lattice="1.800000e+01 0.000000e+00 0.000000e+00 0.000000e+00 1.800000e+01 0.000000e+00 0.000000e+00 0.000000e+00 1.800000e+01" Properties=species:S:1:pos:R:3:force:R:3 energy=4.466853e-03 dipole="-1.893054e-02 -4.784043e-15 -6.475012e-15" pol="2.620361e+01 5.023280e-10 -3.946127e-10 5.023280e-10 1.212254e+01 -3.028053e-12 -3.946127e-10 -3.028053e-12 1.212254e+01" pbc="T T T"
O 1.173744e+00 -1.802266e-11 3.687676e-12 -1.049864e+00 4.533369e-13 -6.879917e-13
C -2.644416e-04 -1.743800e-11 2.946319e-12 7.498689e-01 -2.256895e-13 4.703974e-13
O -1.166039e+00 -1.683003e-11 2.206690e-12 2.999606e-01 -3.309492e-13 1.948008e-13
3
Lattice="1.800000e+01 0.000000e+00 0.000000e+00 0.000000e+00 1.800000e+01 0.000000e+00 0.000000e+00 0.000000e+00 1.800000e+01" Properties=species:S:1:pos:R:3:force:R:3 energy=4.076748e-03 dipole="1.891524e-02 -1.807397e-14 -1.730856e-15" pol="2.567291e+01 -1.467096e-10 -1.894112e-10 -1.467096e-10 1.197974e+01 1.230463e-12 -1.894112e-10 1.230463e-12 1.197974e+01" pbc="T T T"
O 1.159529e+00 -1.856487e-11 3.676826e-12 1.069290e+00 -5.806846e-13 5.943883e-13
C 5.677344e-03 -1.804279e-11 2.969410e-12 -8.074251e-01 4.752883e-13 -3.241096e-13
O -1.156285e+00 -1.749825e-11 2.278978e-12 -2.618137e-01 7.086326e-14 -2.086112e-13
3
Lattice="1.800000e+01 0.000000e+00 0.000000e+00 0.000000e+00 1.800000e+01 0.000000e+00 0.000000e+00 0.000000e+00 1.800000e+01" Properties=species:S:1:pos:R:3:force:R:3 energy=3.592141e-03 dipole="2.521165e-02 -2.059516e-14 4.643997e-15" pol="2.574047e+01 1.519762e-10 -5.895724e-10 1.519762e-10 1.199851e+01 -1.135379e-12 -5.895724e-10 -1.135379e-12 1.199851e+01" pbc="T T T"
O 1.160677e+00 -1.950536e-11 3.656490e-12 1.027373e+00 -5.326634e-13 4.837830e-13
C 6.665668e-03 -1.903123e-11 3.024332e-12 -1.066241e+00 5.586794e-13 -3.813833e-13
O -1.158174e+00 -1.853073e-11 2.404366e-12 3.893577e-02 -1.600263e-14 -5.072983e-14
3
Lattice="1.800000e+01 0.000000e+00 0.000000e+00 0.000000e+00 1.800000e+01 0.000000e+00 0.000000e+00 0.000000e+00 1.800000e+01" Properties=species:S:1:pos:R:3:force:R:3 energy=1.339291e-03 dipole="1.127195e-02 -1.406611e-14 -4.649352e-15" pol="2.573645e+01 -7.355764e-11 1.634790e-10 -7.355764e-11 1.199659e+01 -2.475321e-12 1.634790e-10 -2.475321e-12 1.199659e+01" pbc="T T T"
O 1.161436e+00 -1.999334e-11 3.643387e-12 7.307810e-01 -3.518221e-13 3.356792e-13
C 4.489095e-03 -1.953956e-11 3.052544e-12 -4.767895e-01 3.105957e-13 -1.138403e-13
O -1.157299e+00 -1.906357e-11 2.479554e-12 -2.539598e-01 1.040756e-13 -2.687292e-13
3
Lattice="1.800000e+01 0.000000e+00 0.000000e+00 0.000000e+00 1.800000e+01 0.000000e+00 0.000000e+00 0.000000e+00 1.800000e+01" Properties=species:S:1:pos:R:3:force:R:3 energy=4.272912e-04 dipole="-8.019383e-03 -2.021950e-15 -1.734349e-14" pol="2.576689e+01 5.907551e-10 3.174093e-10 5.907551e-10 1.200472e+01 1.991587e-12 3.174093e-10 1.991587e-12 1.200472e+01" pbc="T T T"
O 1.163263e+00 -2.150672e-11 3.702173e-12 2.423596e-01 -6.399960e-14 -2.818692e-14
C 1.476085e-03 -2.117994e-11 3.221219e-12 3.377386e-01 -6.771782e-14 3.438314e-13
O -1.156864e+00 -2.084663e-11 2.770258e-12 -5.801210e-01 1.823235e-13 -2.993332e-13
3
Lattice="1.800000e+01 0.000000e+00 0.000000e+00 0.000000e+00 1.800000e+01 0.000000e+00 0.000000e+00 0.000000e+00 1.800000e+01" Properties=species:S:1:pos:R:3:force:R:3 energy=6.976480e-03 dipole="3.199048e-02 -5.592055e-15 -2.718178e-15" pol="2.619393e+01 1.943464e-10 3.061507e-10 1.943464e-10 1.212141e+01 -2.671945e-12 3.061507e-10 -2.671945e-12 1.212141e+01" pbc="T T T"
O 1.170451e+00 -2.252002e-11 3.747202e-12 -1.749256e-04 3.381207e-14 -1.201751e-13
C 7.785810e-03 -2.234054e-11 3.390425e-12 -1.269669e+00 1.531770e-13 -1.306830e-13
O -1.168789e+00 -2.216057e-11 3.053632e-12 1.269901e+00 -1.827845e-13 3.166628e-13
3
Lattice="1.800000e+01 0.000000e+00 0.000000e+00 0.000000e+00 1.800000e+01 0.000000e+00 0.000000e+00 0.000000e+00 1.800000e+01" Properties=species:S:1:pos:R:3:force:R:3 energy=2.987879e-03 dipole="-5.752312e-03 -6.745147e-15 -1.481629e-14" pol="2.565914e+01 3.819580e-10 -4.397092e-11 3.819580e-10 1.197550e+01 2.218472e-12 -4.397092e-11 2.218472e-12 1.197550e+01" pbc="T T T"
O 1.160679e+00 -2.293013e-11 3.751524e-12 5.712775e-01 -1.160503e-13 3.722599e-14
C 1.832813e-03 -2.279475e-11 3.454863e-12 2.459541e-01 8.952112e-14 3.019677e-13
O -1.154548e+00 -2.264392e-11 3.186237e-12 -8.172473e-01 7.172740e-14 -3.165735e-13
3
Lattice="1.800000e+01 0.000000e+00 0.000000e+00 0.000000e+00 1.800000e+01 0.000000e+00 0.000000e+00 0.000000e+00 1.800000e+01" Properties=species:S:1:pos:R:3:force:R:3 energy=-4.988514e-04 dipole="-9.980013e-03 -4.336817e-15 -2.222442e-14" pol="2.584393e+01 -6.116038e-11 5.780824e-10 -6.116038e-11 1.202558e+01 -2.140703e-12 5.780824e-10 -2.140703e-12 1.202558e+01" pbc="T T T"
O 1.165124e+00 -2.350268e-11 3.766163e-12 4.788408e-03 -9.376753e-14 -5.713916e-14
C 1.166232e-03 -2.338702e-11 3.549064e-12 4.157900e-01 3.082430e-14 3.371349e-13
O -1.158493e+00 -2.325931e-11 3.366976e-12 -4.206066e-01 -1.488610e-14 -2.059409e-13
3
Lattice="1.800000e+01 0.000000e+00 0.000000e+00 0.000000e+00 1.800000e+01 0.000000e+00 0.000000e+00 0.000000e+00 1.800000e+01" Properties=species:S:1:pos:R:3:force:R:3 energy=1.548597e-03 dipole="1.985074e-02 -8.154664e-15 -2.682492e-14" pol="2.607107e+01 -8.595231e-10 -8.035054e-10 -8.595231e-10 1.208718e+01 1.328884e-12 -8.035054e-10 1.328884e-12 1.208718e+01" pbc="T T T"
O 1.168469e+00 -2.527131e-11 3.975492e-12 4.905870e-02 -7.792512e-14 -1.157290e-13
C 5.856726e-03 -2.509520e-11 3.865744e-12 -8.011804e-01 2.257478e-13 2.218885e-13
O -1.165359e+00 -2.490494e-11 3.799627e-12 7.521678e-01 -1.211139e-13 -9.894245e-14
3
Lattice="1.800000e+01 0.000000e+00 0.000000e+00 0.000000e+00 1.800000e+01 0.000000e+00 0.000000e+00 0.000000e+00 1.800000e+01" Properties=species:S:1:pos:R:3:force:R:3 energy=-7.074243e-04 dipole="-1.188813e-02 -4.863073e-15 -2.345850e-14" pol="2.592005e+01 5.460522e-11 1.664958e-10 5.460522e-11 1.204615e+01 -7.241478e-13 1.664958e-10 -7.241478e-13 1.204615e+01" pbc="T T T"
O 1.166958e+00 -2.587878e-11 4.091431e-12 -2.255549e-01 -4.726700e-15 -1.349039e-13
C 8.636528e-04 -2.564566e-11 3.979290e-12 4.900219e-01 -3.185110e-14 3.878988e-13
O -1.160099e+00 -2.539528e-11 3.912102e-12 -2.644996e-01 -4.361883e-14 -1.978226e-13
3
Lattice="1.800000e+01 0.000000e+00 0.000000e+00 0.000000e+00 1.800000e+01 0.000000e+00 0.000000e+00 0.000000e+00 1.800000e+01" Properties=species:S:1:pos:R:3:force:R:3 energy=4.223202e-04 dipole="1.886021e-02 -1.608130e-14 -1.727417e-14" pol="2.587291e+01 -7.087598e-11 5.535476e-10 -7.087598e-11 1.203384e+01 2.120131e-12 5.535476e-10 2.120131e-12 1.203384e+01" pbc="T T T"
O 1.164067e+00 -2.652423e-11 4.236287e-12 5.360856e-01 -1.590651e-13 -1.190135e-13
C 5.684465e-03 -2.622620e-11 4.104683e-12 -7.827274e-01 3.935818e-13 2.457265e-13
O -1.160828e+00 -2.590141e-11 4.015899e-12 2.466937e-01 -1.369549e-13 -1.694570e-13
3
Lattice="1.800000e+01 0.000000e+00 0.000000e+00 0.000000e+00 1.800000e+01 0.000000e+00 0.000000e+00 0.000000e+00 1.800000e+01" Properties=species:S:1:pos:R:3:force:R:3 energy=2.793095e-03 dipole="1.489808e-02 8.401990e-16 2.506158e-14" pol="2.616480e+01 -1.007258e-10 1.342376e-10 -1.007258e-10 1.211189e+01 -1.584506e-12 1.342376e-10 -1.584506e-12 1.211189e+01" pbc="T T T"
O 1.170878e+00 -2.822540e-11 4.754407e-12 -2.880373e-01 2.307958e-13 9.772231e-14
C 5.082389e-03 -2.779798e-11 4.515616e-12 -5.933035e-01 1.004766e-13 -4.857249e-13
O -1.167187e+00 -2.737966e-11 4.229118e-12 8.813705e-01 -2.845050e-13 3.912234e-13
3
Lattice="1.800000e+01 0.000000e+00 0.000000e+00 0.000000e+00 1.800000e+01 0.000000e+00 0.000000e+00 0.000000e+00 1.800000e+01" Properties=species:S:1:pos:R:3:force:R:3 energy=1.911425e-03 dipole="2.468392e-03 4.695106e-15 1.122725e-14" pol="2.569120e+01 -2.494284e-10 -3.781330e-11 -2.494284e-10 1.198415e+01 8.806272e-13 -3.781330e-11 8.806272e-13 1.198415e+01" pbc="T T T"
O 1.160931e+00 -2.862629e-11 4.905435e-12 6.610964e-01 -1.938708e-13 2.884459e-13
C 3.113862e-03 -2.819949e-11 4.605744e-12 -1.050504e-01 -2.706062e-14 -1.704632e-14
O -1.155762e+00 -2.778317e-11 4.292590e-12 -5.560391e-01 2.388514e-13 -1.192548e-13
3
Lattice="1.800000e+01 0.000000e+00 0.000000e+00 0.000000e+00 1.800000e+01 0.000000e+00 0.000000e+00 0.000000e+00 1.800000e+01" Properties=species:S:1:pos:R:3:force:R:3 energy=3.805149e-03 dipole="-1.618257e-02 -5.071913e-16 -1.448229e-14" pol="2.566716e+01 -4.976966e-10 3.403207e-10 -4.976966e-10 1.197803e+01 4.985656e-12 3.403207e-10 4.985656e-12 1.197803e+01" pbc="T T T"
O 1.161458e+00 -2.893383e-11 5.021681e-12 3.328293e-01 -8.409829e-14 -4.766124e-14
C 2.070227e-04 -2.852619e-11 4.674709e-12 6.912862e-01 -1.428550e-13 3.582082e-13
O -1.154107e+00 -2.810168e-11 4.347708e-12 -1.024159e+00 3.092609e-13 -3.813226e-13
3
Lattice="1.800000e+01 0.000000e+00 0.000000e+00 0.000000e+00 1.800000e+01 0.000000e+00 0.000000e+00 0.000000e+00 1.800000e+01" Properties=species:S:1:pos:R:3:force:R:3 energy=2.274465e-03 dipole="9.635518e-03 -3.257976e-15 8.450192e-15" pol="2.569264e+01 5.196984e-10 2.392231e-10 5.196984e-10 1.198467e+01 1.121258e-12 2.392231e-10 1.121258e-12 1.198467e+01" pbc="T T T"
O 1.160538e+00 -3.063275e-11 5.559494e-12 8.119310e-01 -1.626891e-13 2.335456e-13
C 4.231477e-03 -3.034574e-11 5.143703e-12 -4.100797e-01 1.239726e-13 -1.704468e-13
O -1.156208e+00 -3.005439e-11 4.718724e-12 -4.018246e-01 9.118488e-14 -1.443459e-13
3
Lattice="1.800000e+01 0.000000e+00 0.000000e+00 0.000000e+00 1.800000e+01 0.000000e+00 0.000000e+00 0.000000e+00 1.800000e+01" Properties=species:S:1:pos:R:3:force:R:3 energy=1.421410e-03 dipole="-2.356470e-02 1.990238e-14 2.200610e-14" pol="2.600220e+01 3.017519e-10 5.375424e-10 3.017519e-10 1.206901e+01 -3.964714e-12 5.375424e-10 -3.964714e-12 1.206901e+01" pbc="T T T"
O 1.169472e+00 -3.232756e-11 5.937487e-12 -6.571158e-01 1.437842e-13 1.182801e-13
C -9.767157e-04 -3.219263e-11 5.644777e-12 9.604818e-01 -2.834107e-13 -1.066214e-13
O -1.161232e+00 -3.208810e-11 5.302649e-12 -3.034248e-01 1.686845e-13 7.616023e-14
3
Lattice="1.800000e+01 0.000000e+00 0.000000e+00 0.000000e+00 1.800000e+01 0.000000e+00 0.000000e+00 0.000000e+00 1.800000e+01" Properties=species:S:1:pos:R:3:force:R:3 energy=4.032542e-03 dipole="-1.574053e-02 -2.002859e-14 -3.746932e-14" pol="2.620459e+01 -2.175020e-10 -6.984478e-11 -2.175020e-10 1.212256e+01 2.403909e-13 -6.984478e-11 2.403909e-13 1.212256e+01" pbc="T T T"
O 1.173585e+00 -3.454804e-11 6.365238e-12 -9.917122e-01 -9.689800e-14 -3.294406e-13
C 2.401370e-04 -3.445206e-11 6.248242e-12 6.233585e-01 2.388401e-13 6.429518e-13
O -1.166259e+00 -3.431229e-11 6.204284e-12 3.683251e-01 -1.564811e-13 -2.718682e-13
3
Lattice="1.800000e+01 0.000000e+00 0.000000e+00 0.000000e+00 1.800000e+01 0.000000e+00 0.000000e+00 0.000000e+00 1.800000e+01" Properties=species:S:1:pos:R:3:force:R:3 energy=2.157078e-03 dipole="-1.560457e-02 -1.333455e-14 -1.723240e-14" pol="2.572430e+01 -1.247417e-10 3.988741e-11 -1.247417e-10 1.199349e+01 -3.449030e-12 3.988741e-11 -3.449030e-12 1.199349e+01" pbc="T T T"
O 1.162727e+00 -3.536311e-11 6.550908e-12 1.964472e-01 -2.243451e-13 -1.621683e-13
C 2.936391e-04 -3.520991e-11 6.498925e-12 6.612464e-01 1.093614e-13 2.630399e-13
O -1.155440e+00 -3.502676e-11 6.475339e-12 -8.577370e-01 6.646294e-14 -1.664382e-13
3
Lattice="1.800000e+01 0.000000e+00 0.000000e+00 0.000000e+00 1.800000e+01 0.000000e+00 0.000000e+00 0.000000e+00 1.800000e+01" Properties=species:S:1:pos:R:3:force:R:3 energy=8.566736e-04 dipole="1.341883e-02 -1.742649e-14 -2.417635e-14" pol="2.577237e+01 -1.152651e-10 -9.634677e-11 -1.152651e-10 1.200639e+01 -1.801474e-12 -9.634677e-11 -1.801474e-12 1.200639e+01" pbc="T T T"
O 1.162122e+00 -3.684473e-11 6.910500e-12 6.821911e-01 -3.113491e-13 -1.550416e-13
C 4.826281e-03 -3.653716e-11 6.901500e-12 -5.647616e-01 3.632830e-13 3.455428e-13
O -1.158238e+00 -3.619579e-11 6.938617e-12 -1.173916e-01 -5.490574e-14 -1.793696e-13
3
Lattice="1.800000e+01 0.000000e+00 0.000000e+00 0.000000e+00 1.800000e+01 0.000000e+00 0.000000e+00 0.000000e+00 1.800000e+01" Properties=species:S:1:pos:R:3:force:R:3 energy=6.010651e-03 dipole="3.244268e-02 -1.884398e-14 -1.065923e-15" pol="2.571960e+01 3.093542e-10 9.702929e-10 3.093542e-10 1.199353e+01 1.962694e-13 9.702929e-10 1.962694e-13 1.199353e+01" pbc="T T T"
O 1.159753e+00 -3.767552e-11 7.100489e-12 1.247391e+00 -4.281712e-13 -4.412488e-14
C 7.792079e-03 -3.728891e-11 7.150893e-12 -1.376515e+00 5.436626e-13 -1.839607e-14
O -1.158096e+00 -3.688583e-11 7.197207e-12 1.292088e-01 -1.326999e-13 -2.237126e-14
3
Lattice="1.800000e+01 0.000000e+00 0.000000e+00 0.000000e+00 1.800000e+01 0.000000e+00 0.000000e+00 0.000000e+00 1.800000e+01" Properties=species:S:1:pos:R:3:force:R:3 energy=4.064354e-03 dipole="2.890502e-02 -2.885000e-14 -3.088370e-14" pol="2.576164e+01 1.071577e-10 5.991820e-10 1.071577e-10 1.200458e+01 4.786738e-13 5.991820e-10 4.786738e-13 1.200458e+01" pbc="T T T"
O 1.160927e+00 -3.830162e-11 7.247573e-12 1.053260e+00 -4.634062e-13 -2.659705e-13
C 7.245018e-03 -3.789278e-11 7.305924e-12 -1.218989e+00 6.877327e-13 4.232510e-13
O -1.158859e+00 -3.744288e-11 7.418463e-12 1.658064e-01 -2.240210e-13 -1.898788e-13
3
Lattice="1.800000e+01 0.000000e+00 0.000000e+00 0.000000e+00 1.800000e+01 0.000000e+00 0.000000e+00 0.000000e+00 1.800000e+01" Properties=species:S:1:pos:R:3:force:R:3 energy=3.928772e-04 dipole="-1.279945e-02 1.572567e-14 3.621683e-14" pol="2.606067e+01 -3.336467e-10 -1.355219e-10 -3.336467e-10 1.208393e+01 7.939545e-13 -1.355219e-10 7.939545e-13 1.208393e+01" pbc="T T T"
O 1.170184e+00 -4.073254e-11 7.623688e-12 -5.902584e-01 3.612207e-13 3.849686e-13
C 7.128498e-04 -4.023262e-11 7.986153e-12 5.172419e-01 -3.815531e-13 -6.428389e-13
O -1.163212e+00 -3.975659e-11 8.282799e-12 7.298597e-02 2.808219e-14 2.303928e-13
3
Lattice="1.800000e+01 0.000000e+00 0.000000e+00 0.000000e+00 1.800000e+01 0.000000e+00 0.000000e+00 0.000000e+00 1.800000e+01" Properties=species:S:1:pos:R:3:force:R:3 energy=-5.464037e-04 dipole="4.240285e-03 1.428761e-14 5.606767e-15" pol="2.581528e+01 -4.806868e-10 -2.925082e-11 -4.806868e-10 1.201771e+01 -1.594718e-12 -2.925082e-11 -1.594718e-12 1.201771e+01" pbc="T T T"
O 1.163645e+00 -4.628029e-11 8.519433e-12 3.732212e-01 -6.521936e-14 -1.126773e-13
C 3.392516e-03 -4.555798e-11 9.166924e-12 -1.773531e-01 -1.679723e-13 -1.862425e-15
O -1.158685e+00 -4.487133e-11 9.802710e-12 -1.958560e-01 2.636706e-13 1.098039e-13
3
Lattice="1.800000e+01 0.000000e+00 0.000000e+00 0.000000e+00 1.800000e+01 0.000000e+00 0.000000e+00 0.000000e+00 1.800000e+01" Properties=species:S:1:pos:R:3:force:R:3 energy=-5.664821e-04 dipole="-1.305220e-02 2.630057e-14 1.414510e-14" pol="2.594367e+01 8.023442e-10 5.694182e-10 8.023442e-10 1.205255e+01 1.085020e-12 5.694182e-10 1.085020e-12 1.205255e+01" pbc="T T T"
O 1.167558e+00 -4.944138e-11 8.954392e-12 -3.076500e-01 3.986084e-13 2.998677e-13
C 6.797393e-04 -4.869485e-11 9.656438e-12 5.362306e-01 -6.615430e-13 -4.282262e-13
O -1.160562e+00 -4.799501e-11 1.034293e-11 -2.286156e-01 2.690092e-13 1.641152e-13
3
Lattice="1.800000e+01 0.000000e+00 0.000000e+00 0.000000e+00 1.800000e+01 0.000000e+00 0.000000e+00 0.000000e+00 1.800000e+01" Properties=species:S:1:pos:R:3:force:R:3 energy=2.270891e-03 dipole="2.576495e-02 -3.402847e-14 2.937746e-16" pol="2.603925e+01 1.616585e-10 -2.535264e-10 1.616585e-10 1.207918e+01 -3.891824e-13 -2.535264e-10 -3.891824e-13 1.207918e+01" pbc="T T T"
O 1.167384e+00 -4.997662e-11 9.047238e-12 2.561554e-01 -2.117442e-13 -7.911917e-14
C 6.784764e-03 -4.928810e-11 9.734262e-12 -1.044791e+00 7.852804e-13 4.376013e-13
O -1.164971e+00 -4.856845e-11 1.040900e-11 7.886966e-01 -5.686894e-13 -3.430250e-13
3
Lattice="1.800000e+01 0.000000e+00 0.000000e+00 0.000000e+00 1.800000e+01 0.000000e+00 0.000000e+00 0.000000e+00 1.800000e+01" Properties=species:S:1:pos:R:3:force:R:3 energy=6.149032e-03 dipole="3.026756e-02 -3.801740e-14 -1.605368e-14" pol="2.618053e+01 2.946446e-10 2.067211e-10 2.946446e-10 1.211759e+01 9.312839e-13 2.067211e-10 9.312839e-13 1.211759e+01" pbc="T T T"
O 1.170263e+00 -5.145112e-11 9.327884e-12 -3.681601e-03 -1.649777e-13 1.193098e-14
C 7.511749e-03 -5.086011e-11 9.932639e-12 -1.203445e+00 9.136995e-13 5.585887e-13
O -1.168395e+00 -5.021772e-11 1.054120e-11 1.207182e+00 -7.664939e-13 -6.677535e-13
3
Lattice="1.800000e+01 0.000000e+00 0.000000e+00 0.000000e+00 1.800000e+01 0.000000e+00 0.000000e+00 0.000000e+00 1.800000e+01" Properties=species:S:1:pos:R:3:force:R:3 energy=-8.359684e-04 dipole="5.242707e-03 -2.815842e-14 -2.072052e-14" pol="2.584515e+01 3.391344e-10 -3.154805e-11 3.391344e-10 1.202578e+01 -1.397846e-12 -3.154805e-11 -1.397846e-12 1.202578e+01" pbc="T T T"
O 1.164262e+00 -5.205984e-11 9.453379e-12 3.170015e-01 -3.317980e-13 -2.766097e-13
C 3.549932e-03 -5.151393e-11 9.998763e-12 -2.183655e-01 4.821561e-13 2.990623e-13
O -1.159420e+00 -5.091310e-11 1.058198e-11 -9.862109e-02 -1.533768e-13 -4.124089e-14
3
Lattice="1.800000e+01 0.000000e+00 0.000000e+00 0.000000e+00 1.800000e+01 0.000000e+00 0.000000e+00 0.000000e+00 1.800000e+01" Properties=species:S:1:pos:R:3:force:R:3 energy=5.726010e-04 dipole="-9.604506e-03 -2.969379e-14 -1.530708e-14" pol="2.609004e+01 3.805229e-10 6.264101e-11 3.805229e-10 1.209165e+01 -2.078175e-12 6.264101e-11 -2.078175e-12 1.209165e+01" pbc="T T T"
O 1.170661e+00 -5.368548e-11 9.730876e-12 -5.989375e-01 7.316541e-14 5.197571e-14
C 1.214924e-03 -5.321929e-11 1.017520e-11 3.864983e-01 3.070281e-13 9.008607e-14
O -1.164067e+00 -5.268676e-11 1.065685e-11 2.124171e-01 -3.672633e-13 -2.294492e-13
3
Lattice="1.800000e+01 0.000000e+00 0.000000e+00 0.000000e+00 1.800000e+01 0.000000e+00 0.000000e+00 0.000000e+00 1.800000e+01" Properties=species:S:1:pos:R:3:force:R:3 energy=-9.329881e-04 dipole="-6.366068e-03 -2.988631e-14 -1.871357e-14" pol="2.598946e+01 1.029349e-10 -2.284624e-11 1.029349e-10 1.206461e+01 -8.372620e-13 -2.284624e-11 -8.372620e-13 1.206461e+01" pbc="T T T"
O 1.168208e+00 -5.446068e-11 9.859455e-12 -2.876533e-01 -1.183950e-13 -8.344802e-14
C 1.728319e-03 -5.402567e-11 1.024709e-11 2.598219e-01 3.359628e-13 2.188950e-13
O -1.161998e+00 -5.352570e-11 1.067726e-11 2.781482e-02 -2.417634e-13 -1.635079e-13
3
Lattice="1.800000e+01 0.000000e+00 0.000000e+00 0.000000e+00 1.800000e+01 0.000000e+00 0.000000e+00 0.000000e+00 1.800000e+01" Properties=species:S:1:pos:R:3:force:R:3 energy=8.824521e-03 dipole="3.548474e-02 -4.864599e-14 -2.281286e-14" pol="2.622245e+01 6.780749e-11 6.566860e-10 6.780749e-11 1.212957e+01 -2.023739e-12 6.566860e-10 -2.023739e-12 1.212957e+01" pbc="T T T"
O 1.170861e+00 -5.691358e-11 1.033139e-11 3.899260e-03 -2.622351e-13 -1.501830e-13
C 8.342522e-03 -5.665925e-11 1.045786e-11 -1.402992e+00 8.728594e-13 4.364259e-13
O -1.169617e+00 -5.632640e-11 1.062434e-11 1.399151e+00 -6.026831e-13 -3.045808e-13
3
Lattice="1.800000e+01 0.000000e+00 0.000000e+00 0.000000e+00 1.800000e+01 0.000000e+00 0.000000e+00 0.000000e+00 1.800000e+01" Properties=species:S:1:pos:R:3:force:R:3 energy=2.089084e-03 dipole="1.032741e-02 1.745531e-14 2.440835e-14" pol="2.615647e+01 2.847227e-10 -3.031295e-10 2.847227e-10 1.210942e+01 2.486624e-12 -3.031295e-10 2.486624e-12 1.210942e+01" pbc="T T T"
O 1.170972e+00 -6.314344e-11 1.124720e-11 -3.615235e-01 1.553387e-13 -2.414434e-14
C 4.359762e-03 -6.310611e-11 1.086466e-11 -4.117178e-01 -3.075502e-13 -4.862017e-13
O -1.166738e+00 -6.311055e-11 1.043565e-11 7.732623e-01 1.447774e-13 4.818097e-13
3
Lattice="1.800000e+01 0.000000e+00 0.000000e+00 0.000000e+00 1.800000e+01 0.000000e+00 0.000000e+00 0.000000e+00 1.800000e+01" Properties=species:S:1:pos:R:3:force:R:3 energy=-1.259477e-03 dipole="1.163916e-03 1.817998e-16 1.478888e-14" pol="2.596200e+01 -7.520633e-11 -6.568198e-10 -7.520633e-11 1.205719e+01 -5.663933e-13 -6.568198e-10 -5.663933e-13 1.205719e+01" pbc="T T T"
O 1.167146e+00 -6.487917e-11 1.153143e-11 -6.599686e-02 -1.050916e-14 7.123909e-14
C 2.911640e-03 -6.484547e-11 1.100802e-11 -4.765042e-02 2.558540e-15 -2.266535e-13
O -1.161826e+00 -6.480983e-11 1.045634e-11 1.136504e-01 -4.815673e-14 1.398744e-13
3
Lattice="1.800000e+01 0.000000e+00 0.000000e+00 0.000000e+00 1.800000e+01 0.000000e+00 0.000000e+00 0.000000e+00 1.800000e+01" Properties=species:S:1:pos:R:3:force:R:3 energy=3.225467e-03 dipole="-3.121730e-02 -2.663284e-14 -3.117037e-14" pol="2.586983e+01 5.338481e-10 -3.326762e-10 5.338481e-10 1.203411e+01 -3.564063e-12 -3.326762e-10 -3.564063e-12 1.203411e+01" pbc="T T T"
O 1.166900e+00 -6.556899e-11 1.166591e-11 -4.806962e-01 -2.386966e-13 -3.595041e-13
C -2.162309e-03 -6.554450e-11 1.105526e-11 1.296763e+00 3.470593e-13 8.975899e-13
O -1.157769e+00 -6.546303e-11 1.048099e-11 -8.161490e-01 -1.582076e-13 -5.929443e-13
3
Lattice="1.800000e+01 0.000000e+00 0.000000e+00 0.000000e+00 1.800000e+01 0.000000e+00 0.000000e+00 0.000000e+00 1.800000e+01" Properties=species:S:1:pos:R:3:force:R:3 energy=-9.191940e-04 dipole="2.974135e-03 -1.181325e-14 1.301963e-14" pol="2.584505e+01 3.409444e-11 4.265115e-11 3.409444e-11 1.202573e+01 1.046018e-12 4.265115e-11 1.046018e-12 1.202573e+01" pbc="T T T"
O 1.164395e+00 -6.670573e-11 1.187309e-11 2.695434e-01 -2.132401e-13 2.220467e-13
C 3.194833e-03 -6.661562e-11 1.120527e-11 -1.238663e-01 2.117146e-13 -1.981571e-13
O -1.159286e+00 -6.649668e-11 1.051469e-11 -1.456686e-01 -8.467324e-14 3.937036e-15
3
Lattice="1.800000e+01 0.000000e+00 0.000000e+00 0.000000e+00 1.800000e+01 0.000000e+00 0.000000e+00 0.000000e+00 1.800000e+01" Properties=species:S:1:pos:R:3:force:R:3 energy=2.836817e-03 dipole="-2.498066e-02 1.276584e-14 -2.934839e-14" pol="2.608874e+01 1.245765e-09 -3.506081e-10 1.245765e-09 1.209238e+01 1.334657e-13 -3.506081e-10 1.334657e-13 1.209238e+01" pbc="T T T"
O 1.171501e+00 -6.824281e-11 1.215868e-11 -8.922990e-01 2.565362e-13 -6.702944e-13
C -1.208583e-03 -6.801075e-11 1.136358e-11 1.005914e+00 -3.149866e-13 8.635246e-13
O -1.163086e+00 -6.779755e-11 1.060473e-11 -1.136707e-01 2.585863e-14 -2.174873e-13
3
Lattice="1.800000e+01 0.000000e+00 0.000000e+00 0.000000e+00 1.800000e+01 0.000000e+00 0.000000e+00 0.000000e+00 1.800000e+01" Properties=species:S:1:pos:R:3:force:R:3 energy=2.694585e-03 dipole="-2.450262e-02 1.522272e-14 1.115379e-14" pol="2.608644e+01 -2.886554e-10 -4.299321e-10 -2.886554e-10 1.209172e+01 1.057822e-13 -4.299321e-10 1.057822e-13 1.209172e+01" pbc="T T T"
O 1.171422e+00 -6.888872e-11 1.225181e-11 -8.777556e-01 2.953442e-13 -3.910651e-13
C -1.132926e-03 -6.859710e-11 1.146521e-11 9.869648e-01 -4.329298e-13 3.737639e-13
O -1.163065e+00 -6.833110e-11 1.064332e-11 -1.092641e-01 9.553397e-14 6.468492e-14
3
Lattice="1.800000e+01 0.000000e+00 0.000000e+00 0.000000e+00 1.800000e+01 0.000000e+00 0.000000e+00 0.000000e+00 1.800000e+01" Properties=species:S:1:pos:R:3:force:R:3 energy=-9.915210e-05 dipole="6.977042e-03 -2.719063e-14 -6.169769e-15" pol="2.579357e+01 2.339953e-10 1.374697e-10 2.339953e-10 1.201190e+01 -7.060119e-13 1.374697e-10 -7.060119e-13 1.201190e+01" pbc="T T T"
O 1.162990e+00 -6.945875e-11 1.234369e-11 4.878509e-01 -2.781044e-13 2.609466e-13
C 3.819981e-03 -6.915881e-11 1.151517e-11 -2.927325e-01 3.786039e-13 -2.505627e-14
O -1.158351e+00 -6.881122e-11 1.070807e-11 -1.950985e-01 -8.850512e-14 -2.362382e-13
3
Lattice="1.800000e+01 0.000000e+00 0.000000e+00 0.000000e+00 1.800000e+01 0.000000e+00 0.000000e+00 0.000000e+00 1.800000e+01" Properties=species:S:1:pos:R:3:force:R:3 energy=6.060969e-03 dipole="-2.827681e-02 -1.456923e-14 2.461314e-15" pol="2.619485e+01 -3.158665e-11 -7.260786e-11 -3.158665e-11 1.212117e+01 -1.154587e-12 -7.260786e-11 -1.154587e-12 1.212117e+01" pbc="T T T"
O 1.174066e+00 -7.263709e-11 1.268566e-11 -1.203813e+00 2.667726e-13 -6.320604e-13
C -1.741092e-03 -7.218078e-11 1.194991e-11 1.121912e+00 -2.149117e-14 4.095789e-13
O -1.165252e+00 -7.167345e-11 1.117681e-11 8.184998e-02 -2.082125e-13 1.605070e-13
3
Lattice="1.800000e+01 0.000000e+00 0.000000e+00 0.000000e+00 1.800000e+01 0.000000e+00 0.000000e+00 0.000000e+00 1.800000e+01" Properties=species:S:1:pos:R:3:force:R:3 energy=4.242216e-03 dipole="-2.283527e-02 -2.676023e-14 1.115402e-14" pol="2.617168e+01 -3.030953e-10 -1.036073e-10 -3.030953e-10 1.211437e+01 2.121753e-12 -1.036073e-10 2.121753e-12 1.211437e+01" pbc="T T T"
O 1.173246e+00 -7.460695e-11 1.280855e-11 -1.048283e+00 2.383297e-13 -3.572141e-13
C -8.785262e-04 -7.406728e-11 1.222611e-11 9.087562e-01 1.169421e-13 8.374965e-14
O -1.165079e+00 -7.345701e-11 1.160107e-11 1.394828e-01 -3.080875e-13 2.857100e-13
3
Lattice="1.800000e+01 0.000000e+00 0.000000e+00 0.000000e+00 1.800000e+01 0.000000e+00 0.000000e+00 0.000000e+00 1.800000e+01" Properties=species:S:1:pos:R:3:force:R:3 energy=6.800771e-03 dipole="2.933721e-02 2.306554e-14 -7.044403e-15" pol="2.621105e+01 -1.993490e-11 -4.896496e-10 -1.993490e-11 1.212564e+01 -3.245409e-13 -4.896496e-10 -3.245409e-13 1.212564e+01" pbc="T T T"
O 1.171004e+00 -7.714013e-11 1.300683e-11 -9.952309e-02 4.222229e-13 -1.898864e-13
C 7.368669e-03 -7.642456e-11 1.258740e-11 -1.161391e+00 -2.144592e-14 -8.819211e-14
O -1.169029e+00 -7.578670e-11 1.220095e-11 1.260965e+00 -4.359559e-13 2.852601e-13
3
Lattice="1.800000e+01 0.000000e+00 0.000000e+00 0.000000e+00 1.800000e+01 0.000000e+00 0.000000e+00 0.000000e+00 1.800000e+01" Properties=species:S:1:pos:R:3:force:R:3 energy=5.287522e-03 dipole="2.222669e-02 -2.323050e-14 -8.960395e-15" pol="2.565459e+01 -5.304914e-11 -3.918444e-10 -5.304914e-11 1.197498e+01 3.258317e-13 -3.918444e-10 3.258317e-13 1.197498e+01" pbc="T T T"
O 1.158910e+00 -8.033374e-11 1.321311e-11 1.193235e+00 -7.496086e-13 3.632387e-14
C 6.191805e-03 -7.961637e-11 1.314887e-11 -9.513250e-01 6.746891e-13 1.248250e-13
O -1.156052e+00 -7.888042e-11 1.311145e-11 -2.418517e-01 7.690342e-14 -1.050206e-13
3
Lattice="1.800000e+01 0.000000e+00 0.000000e+00 0.000000e+00 1.800000e+01 0.000000e+00 0.000000e+00 0.000000e+00 1.800000e+01" Properties=species:S:1:pos:R:3:force:R:3 energy=3.229237e-03 dipole="-1.385817e-02 3.096838e-14 7.756520e-15" pol="2.567543e+01 2.101505e-10 -5.380256e-10 2.101505e-10 1.198016e+01 -3.458761e-12 -5.380256e-10 -3.458761e-12 1.198016e+01" pbc="T T T"
O 1.161515e+00 -8.089994e-11 1.325676e-11 3.592007e-01 -1.488091e-14 5.045144e-14
C 5.686779e-04 -8.015010e-11 1.326650e-11 5.912720e-01 -6.812010e-13 -6.330443e-14
O -1.154435e+00 -7.945193e-11 1.326202e-11 -9.505104e-01 8.653695e-13 4.969194e-14
3
Lattice="1.800000e+01 0.000000e+00 0.000000e+00 0.000000e+00 1.800000e+01 0.000000e+00 0.000000e+00 0.000000e+00 1.800000e+01" Properties=species:S:1:pos:R:3:force:R:3 energy=5.674011e-03 dipole="2.397170e-02 -1.285941e-14 -3.503888e-15" pol="2.565429e+01 -2.593344e-10 -1.597662e-10 -2.593344e-10 1.197503e+01 -1.481773e-12 -1.597662e-10 -1.481773e-12 1.197503e+01" pbc="T T T"
O 1.158797e+00 -8.468383e-11 1.353561e-11 1.233365e+00 -6.631662e-13 -2.914130e-13
C 6.463565e-03 -8.408197e-11 1.396403e-11 -1.026117e+00 6.040679e-13 1.641089e-13
O -1.156142e+00 -8.347030e-11 1.436563e-11 -2.071866e-01 5.428146e-14 2.660255e-13
3
Lattice="1.800000e+01 0.000000e+00 0.000000e+00 0.000000e+00 1.800000e+01 0.000000e+00 0.000000e+00 0.000000e+00 1.800000e+01" Properties=species:S:1:pos:R:3:force:R:3 energy=1.033682e-03 dipole="1.661408e-02 2.762586e-16 -1.626756e-15" pol="2.607074e+01 4.448747e-10 -2.920395e-11 4.448747e-10 1.208685e+01 -1.785992e-12 -2.920395e-11 -1.785992e-12 1.208685e+01" pbc="T T T"
O 1.168662e+00 -2.178013e-15 1.968512e-15 -1.838818e-02 7.484182e-14 -7.748780e-14
C 5.346343e-03 -8.286649e-16 4.726111e-16 -6.705108e-01 6.899223e-15 2.891600e-15
O -1.165170e+00 -4.076026e-16 5.799927e-16 6.889379e-01 -6.207623e-15 -2.104223e-14
3
Lattice="1.800000e+01 0.000000e+00 0.000000e+00 0.000000e+00 1.800000e+01 0.000000e+00 0.000000e+00 0.000000e+00 1.800000e+01" Properties=species:S:1:pos:R:3:force:R:3 energy=-5.481926e-04 dipole="-7.474886e-03 -2.701580e-16 -7.885163e-15" pol="2.582968e+01 -2.020678e-11 1.327392e-10 -2.020678e-11 1.202166e+01 -8.948481e-13 1.327392e-10 -8.948481e-13 1.202166e+01" pbc="T T T"
O 1.164651e+00 -3.382672e-13 3.739782e-13 9.228051e-02 -7.123550e-14 -4.978789e-15
C 1.553314e-03 -7.657369e-14 6.895229e-14 3.120321e-01 -7.183074e-14 1.107708e-13
O -1.158326e+00 1.898652e-13 -2.318542e-13 -4.043339e-01 1.321824e-13 -1.704597e-13
3
Lattice="1.800000e+01 0.000000e+00 0.000000e+00 0.000000e+00 1.800000e+01 0.000000e+00 0.000000e+00 0.000000e+00 1.800000e+01" Properties=species:S:1:pos:R:3:force:R:3 energy=5.435464e-03 dipole="-1.993244e-02 2.103984e-14 -3.756580e-15" pol="2.622906e+01 9.965518e-11 -1.654782e-10 9.965518e-11 1.212942e+01 -1.388863e-12 -1.654782e-10 -1.388863e-12 1.212942e+01" pbc="T T T"
O 1.174362e+00 -4.925242e-13 5.112225e-13 -1.128334e+00 3.739235e-13 -3.509380e-13
C -4.335464e-04 -1.137320e-13 1.100247e-13 7.867535e-01 -2.854406e-13 1.909994e-13
O -1.166553e+00 2.581626e-13 -3.011293e-13 3.415473e-01 -1.116038e-13 1.864919e-13
3
Lattice="1.800000e+01 0.000000e+00 0.000000e+00 0.000000e+00 1.800000e+01 0.000000e+00 0.000000e+00 0.000000e+00 1.800000e+01" Properties=species:S:1:pos:R:3:force:R:3 energy=1.137880e-03 dipole="2.243696e-02 -7.939095e-15 1.679047e-14" pol="2.599494e+01 -7.573510e-11 -9.825694e-11 -7.573510e-11 1.206696e+01 1.528984e-12 -9.825694e-11 1.528984e-12 1.206696e+01" pbc="T T T"
O 1.166584e+00 -6.766981e-13 6.518615e-13 2.977140e-01 -1.056296e-13 1.711573e-13
C 6.243890e-03 -1.970195e-13 1.736315e-13 -9.154113e-01 3.397792e-13 -4.419309e-13
O -1.163800e+00 2.860844e-13 -3.177689e-13 6.177539e-01 -3.030938e-13 2.898024e-13
3
Lattice="1.800000e+01 0.000000e+00 0.000000e+00 0.000000e+00 1.800000e+01 0.000000e+00 0.000000e+00 0.000000e+00 1.800000e+01" Properties=species:S:1:pos:R:3:force:R:3 energy=3.105339e-04 dipole="-1.177262e-02 2.882277e-15 -5.624477e-15" pol="2.579358e+01 -5.823558e-11 5.233028e-10 -5.823558e-11 1.201206e+01 -2.180072e-12 5.233028e-10 -2.180072e-12 1.201206e+01" pbc="T T T"
O 1.164071e+00 -7.487716e-13 7.091966e-13 9.663379e-02 -8.288450e-14 8.488833e-15
C 8.745437e-04 -2.317463e-13 1.996046e-13 4.939818e-01 -2.102342e-13 2.196955e-13
O -1.157258e+00 2.893166e-13 -3.080524e-13 -5.906490e-01 2.661775e-13 -2.625363e-13
3
Lattice="1.800000e+01 0.000000e+00 0.000000e+00 0.000000e+00 1.800000e+01 0.000000e+00 0.000000e+00 0.000000e+00 1.800000e+01" Properties=species:S:1:pos:R:3:force:R:3 energy=3.227200e-03 dipole="2.698632e-02 -1.688722e-14 1.093824e-14" pol="2.608539e+01 -8.763798e-11 1.024851e-10 -8.763798e-11 1.209170e+01 1.861202e-12 1.024851e-10 1.861202e-12 1.209170e+01" pbc="T T T"
O 1.168326e+00 -8.610207e-13 7.927244e-13 1.651718e-01 -5.533376e-14 1.275280e-15
C 6.966003e-03 -2.848462e-13 2.463431e-13 -1.087287e+00 5.890145e-13 -4.561733e-13
O -1.166094e+00 3.021453e-13 -3.031782e-13 9.221750e-01 -4.556353e-13 4.127925e-13
3
Lattice="1.800000e+01 0.000000e+00 0.000000e+00 0.000000e+00 1.800000e+01 0.000000e+00 0.000000e+00 0.000000e+00 1.800000e+01" Properties=species:S:1:pos:R:3:force:R:3 energy=4.636505e-03 dipole="-2.881590e-02 1.811197e-14 -2.148281e-14" pol="2.573401e+01 -6.186840e-11 7.998858e-10 -6.186840e-11 1.199708e+01 1.308335e-12 7.998858e-10 1.308335e-12 1.199708e+01" pbc="T T T"
O 1.163660e+00 -1.187957e-12 1.055809e-12 -9.413712e-02 7.474402e-14 -5.860861e-14
C -1.793754e-03 -4.450500e-13 4.125177e-13 1.219958e+00 -7.261831e-13 7.468389e-13
O -1.154872e+00 2.983866e-13 -2.144410e-13 -1.125897e+00 6.596756e-13 -6.149594e-13
3
Lattice="1.800000e+01 0.000000e+00 0.000000e+00 0.000000e+00 1.800000e+01 0.000000e+00 0.000000e+00 0.000000e+00 1.800000e+01" Properties=species:S:1:pos:R:3:force:R:3 energy=4.645876e-04 dipole="-1.883222e-02 1.061427e-14 -8.460377e-15" pol="2.599211e+01 -5.032662e-10 -4.070908e-10 -5.032662e-10 1.206592e+01 1.267134e-12 -4.070908e-10 1.267134e-12 1.206592e+01" pbc="T T T"
O 1.168953e+00 -1.270836e-12 1.130348e-12 -5.409164e-01 3.479209e-13 -3.253139e-13
C -2.584503e-04 -4.981864e-13 4.795209e-13 7.685518e-01 -5.180451e-13 4.570592e-13
O -1.161326e+00 2.741811e-13 -1.668624e-13 -2.276834e-01 7.615590e-14 -4.674094e-14
3
Lattice="1.800000e+01 0.000000e+00 0.000000e+00 0.000000e+00 1.800000e+01 0.000000e+00 0.000000e+00 0.000000e+00 1.800000e+01" Properties=species:S:1:pos:R:3:force:R:3 energy=3.142428e-03 dipole="-1.629621e-03 -1.192917e-17 7.343060e-16" pol="2.620905e+01 3.220435e-10 -2.878051e-11 3.220435e-10 1.212324e+01 1.888549e-12 -2.878051e-11 1.888549e-12 1.212324e+01" pbc="T T T"
O 1.172830e+00 -1.457234e-12 1.388581e-12 -7.290420e-01 5.440869e-13 -3.544933e-13
C 2.433913e-03 -7.060926e-13 7.433069e-13 6.445353e-02 -7.435442e-14 5.218047e-14
O -1.167253e+00 4.642636e-14 9.585331e-14 6.645855e-01 -4.587370e-13 4.824678e-13
3
Lattice="1.800000e+01 0.000000e+00 0.000000e+00 0.000000e+00 1.800000e+01 0.000000e+00 0.000000e+00 0.000000e+00 1.800000e+01" Properties=species:S:1:pos:R:3:force:R:3 energy=8.692179e-03 dipole="-4.336188e-02 2.149367e-14 -2.890236e-14" pol="2.576999e+01 -1.307260e-10 -3.699161e-11 -1.307260e-10 1.200858e+01 -2.930259e-13 -3.699161e-11 -2.930259e-13 1.200858e+01" pbc="T T T"
O 1.165244e+00 -1.484783e-12 1.484944e-12 -4.666970e-01 3.985360e-13 -3.104950e-13
C -4.089463e-03 -7.893137e-13 8.502648e-13 1.827964e+00 -1.048085e-12 1.129508e-12
O -1.154784e+00 -9.679233e-14 2.377910e-13 -1.361375e+00 8.104374e-13 -8.386470e-13
3
Lattice="1.800000e+01 0.000000e+00 0.000000e+00 0.000000e+00 1.800000e+01 0.000000e+00 0.000000e+00 0.000000e+00 1.800000e+01" Properties=species:S:1:pos:R:3:force:R:3 energy=8.762388e-03 dipole="3.520147e-02 -2.137035e-14 9.531203e-15" pol="2.565489e+01 8.506945e-11 5.402080e-10 8.506945e-11 1.197623e+01 5.411303e-13 5.402080e-10 5.411303e-13 1.197623e+01" pbc="T T T"
O 1.158055e+00 -1.555769e-12 1.779638e-12 1.488514e+00 -7.177203e-13 6.570206e-13
C 8.156415e-03 -1.052814e-12 1.211323e-12 -1.507419e+00 7.024533e-13 -5.904137e-13
O -1.156827e+00 -5.333426e-13 6.523851e-13 1.899135e-02 -7.388106e-14 -2.910804e-14
3
Lattice="1.800000e+01 0.000000e+00 0.000000e+00 0.000000e+00 1.800000e+01 0.000000e+00 0.000000e+00 0.000000e+00 1.800000e+01" Properties=species:S:1:pos:R:3:force:R:3 energy=3.235874e-03 dipole="1.975398e-02 -3.014186e-15 1.855958e-14" pol="2.570823e+01 6.208143e-10 -6.015384e-10 6.208143e-10 1.198938e+01 3.450038e-12 -6.015384e-10 3.450038e-12 1.198938e+01" pbc="T T T"
O 1.160215e+00 -1.646579e-12 1.954732e-12 9.925035e-01 -3.306048e-13 5.724609e-13
C 5.744749e-03 -1.197687e-12 1.429403e-12 -8.390683e-01 2.448205e-13 -5.224511e-13
O -1.157203e+00 -7.514687e-13 8.790672e-13 -1.533814e-01 9.033931e-14 2.599458e-14
3
Lattice="1.800000e+01 0.000000e+00 0.000000e+00 0.000000e+00 1.800000e+01 0.000000e+00 0.000000e+00 0.000000e+00 1.800000e+01" Properties=species:S:1:pos:R:3:force:R:3 energy=7.864232e-03 dipole="-3.066787e-02 1.483164e-14 -4.676007e-15" pol="2.564012e+01 5.319434e-11 -6.739740e-10 5.319434e-11 1.197175e+01 1.548238e-12 -6.739740e-10 1.548238e-12 1.197175e+01" pbc="T T T"
O 1.161575e+00 -1.694155e-12 2.086070e-12 1.089927e-01 -4.712473e-15 1.783174e-13
C -2.117735e-03 -1.288465e-12 1.562049e-12 1.315719e+00 -5.519181e-13 4.733292e-13
O -1.152673e+00 -8.932519e-13 1.022587e-12 -1.424788e+00 5.667023e-13 -6.266158e-13
3
Lattice="1.800000e+01 0.000000e+00 0.000000e+00 0.000000e+00 1.800000e+01 0.000000e+00 0.000000e+00 0.000000e+00 1.800000e+01" Properties=species:S:1:pos:R:3:force:R:3 energy=1.192861e-03 dipole="1.369265e-02 -4.017720e-15 1.542810e-14" pol="2.575650e+01 -5.830205e-10 9.156151e-11 -5.830205e-10 1.200211e+01 1.477227e-12 9.156151e-11 1.477227e-12 1.200211e+01" pbc="T T T"
O 1.161671e+00 -1.724646e-12 2.227212e-12 7.301754e-01 -1.354608e-13 3.878913e-13
C 4.793350e-03 -1.386392e-12 1.703543e-12 -5.775784e-01 1.384258e-13 -4.127333e-13
O -1.157968e+00 -1.047514e-12 1.160202e-12 -1.525585e-01 6.987978e-14 1.095772e-14
3
Lattice="1.800000e+01 0.000000e+00 0.000000e+00 0.000000e+00 1.800000e+01 0.000000e+00 0.000000e+00 0.000000e+00 1.800000e+01" Properties=species:S:1:pos:R:3:force:R:3 energy=9.204553e-05 dipole="-1.287091e-03 -2.930094e-15 -1.184600e-14" pol="2.576952e+01 5.647642e-11 7.617479e-10 5.647642e-11 1.200534e+01 2.758745e-12 7.617479e-10 2.758745e-12 1.200534e+01" pbc="T T T"
O 1.162853e+00 -1.736565e-12 2.339657e-12 3.758099e-01 -1.453661e-13 9.157160e-14
C 2.449579e-03 -1.459914e-12 1.794548e-12 5.415107e-02 6.367263e-14 1.661721e-13
O -1.157401e+00 -1.174277e-12 1.270281e-12 -4.299647e-01 7.045466e-14 -3.160977e-13
3
Lattice="1.800000e+01 0.000000e+00 0.000000e+00 0.000000e+00 1.800000e+01 0.000000e+00 0.000000e+00 0.000000e+00 1.800000e+01" Properties=species:S:1:pos:R:3:force:R:3 energy=2.405890e-03 dipole="-1.187251e-03 -1.175284e-14 -1.186338e-14" pol="2.618462e+01 -2.179155e-10 -5.904228e-10 -2.179155e-10 1.211674e+01 -8.365976e-13 -5.904228e-10 -8.365976e-13 1.211674e+01" pbc="T T T"
O 1.172180e+00 -2.024315e-12 3.370881e-12 -6.616027e-01 -6.100295e-14 -4.436867e-13
C 2.427649e-03 -2.080040e-12 2.749547e-12 4.710257e-02 1.179425e-13 1.439488e-13
O -1.166809e+00 -2.124077e-12 2.141855e-12 6.144978e-01 -9.094897e-14 2.614076e-13
3
Lattice="1.800000e+01 0.000000e+00 0.000000e+00 0.000000e+00 1.800000e+01 0.000000e+00 0.000000e+00 0.000000e+00 1.800000e+01" Properties=species:S:1:pos:R:3:force:R:3 energy=6.524299e-03 dipole="-2.444085e-02 -9.630393e-15 -2.392830e-14" pol="2.623670e+01 1.128294e-09 -8.858339e-10 1.128294e-09 1.213190e+01 -5.400958e-13 -8.858339e-10 -5.400958e-13 1.213190e+01" pbc="T T T"
O 1.174673e+00 -2.085351e-12 3.583395e-12 -1.230150e+00 -1.687942e-13 -6.958725e-13
C -1.258991e-03 -2.192518e-12 2.948109e-12 9.638378e-01 2.427710e-13 7.110145e-13
O -1.166551e+00 -2.282045e-12 2.340998e-12 2.662719e-01 -9.046833e-14 6.063968e-14
3
Lattice="1.800000e+01 0.000000e+00 0.000000e+00 0.000000e+00 1.800000e+01 0.000000e+00 0.000000e+00 0.000000e+00 1.800000e+01" Properties=species:S:1:pos:R:3:force:R:3 energy=7.210276e-03 dipole="-4.385900e-02 -1.457428e-14 -2.505665e-14" pol="2.593766e+01 8.815864e-10 -3.771743e-10 8.815864e-10 1.205416e+01 2.557585e-12 -3.771743e-10 2.557585e-12 1.205416e+01" pbc="T T T"
O 1.168985e+00 -2.131510e-12 3.823730e-12 -8.843613e-01 -1.346371e-13 -4.998001e-13
C -4.282441e-03 -2.309572e-12 3.199383e-12 1.805961e+00 3.740358e-13 1.033900e-12
O -1.158612e+00 -2.473578e-12 2.584574e-12 -9.217049e-01 -1.538408e-13 -4.883704e-13
3
Lattice="1.800000e+01 0.000000e+00 0.000000e+00 0.000000e+00 1.800000e+01 0.000000e+00 0.000000e+00 0.000000e+00 1.800000e+01" Properties=species:S:1:pos:R:3:force:R:3 energy=9.489290e-03 dipole="-3.902532e-02 -9.405780e-15 -1.107884e-14" pol="2.567355e+01 -6.122366e-10 -8.447620e-10 -6.122366e-10 1.198176e+01 4.277070e-12 -8.447620e-10 4.277070e-12 1.198176e+01" pbc="T T T"
O 1.162724e+00 -2.158078e-12 4.063386e-12 -1.415728e-01 -5.140274e-14 -2.517230e-14
C -3.489830e-03 -2.421339e-12 3.452122e-12 1.667136e+00 4.222329e-13 7.384766e-13
O -1.152972e+00 -2.678558e-12 2.829837e-12 -1.525659e+00 -3.383426e-13 -8.650661e-13
3
Lattice="1.800000e+01 0.000000e+00 0.000000e+00 0.000000e+00 1.800000e+01 0.000000e+00 0.000000e+00 0.000000e+00 1.800000e+01" Properties=species:S:1:pos:R:3:force:R:3 energy=7.434862e-03 dipole="-3.510753e-02 -1.877100e-14 -3.838647e-14" pol="2.617866e+01 -1.039064e-09 -5.310494e-10 -1.039064e-09 1.211777e+01 1.895176e-12 -5.310494e-10 1.895176e-12 1.211777e+01" pbc="T T T"
O 1.173889e+00 -2.508617e-12 5.436714e-12 -1.291387e+00 -4.775806e-13 -8.630721e-13
C -3.002298e-03 -2.872168e-12 4.855994e-12 1.396635e+00 5.380041e-13 9.824842e-13
O -1.164635e+00 -3.214804e-12 4.323986e-12 -1.053111e-01 -8.452207e-14 -2.005454e-13
3
Lattice="1.800000e+01 0.000000e+00 0.000000e+00 0.000000e+00 1.800000e+01 0.000000e+00 0.000000e+00 0.000000e+00 1.800000e+01" Properties=species:S:1:pos:R:3:force:R:3 energy=8.932705e-03 dipole="-4.322484e-02 -4.163735e-16 9.441979e-15" pol="2.612806e+01 5.683679e-11 -5.959318e-10 5.683679e-11 1.210550e+01 4.797237e-13 -5.959318e-10 4.797237e-13 1.210550e+01" pbc="T T T"
O 1.173172e+00 -2.690643e-12 5.761066e-12 -1.321078e+00 -2.507958e-13 -2.554308e-13
C -4.287677e-03 -2.941089e-12 5.271022e-12 1.732778e+00 2.841978e-13 2.921515e-13
O -1.162987e+00 -3.205025e-12 4.723612e-12 -4.117840e-01 2.428518e-14 8.090994e-14
3
Lattice="1.800000e+01 0.000000e+00 0.000000e+00 0.000000e+00 1.800000e+01 0.000000e+00 0.000000e+00 0.000000e+00 1.800000e+01" Properties=species:S:1:pos:R:3:force:R:3 energy=1.187397e-02 dipole="-4.279538e-02 8.484868e-16 1.958074e-14" pol="2.624282e+01 -4.583532e-10 -7.483441e-11 -4.583532e-10 1.213630e+01 2.359147e-12 -7.483441e-11 2.359147e-12 1.213630e+01" pbc="T T T"
O 1.175710e+00 -2.831238e-12 6.042657e-12 -1.576080e+00 -1.653724e-13 -2.586033e-13
C -4.252431e-03 -2.997501e-12 5.580183e-12 1.688039e+00 1.321721e-13 2.092508e-13
O -1.165584e+00 -3.180748e-12 5.054825e-12 -1.120239e-01 -1.945811e-14 2.047457e-13
3
Lattice="1.800000e+01 0.000000e+00 0.000000e+00 0.000000e+00 1.800000e+01 0.000000e+00 0.000000e+00 0.000000e+00 1.800000e+01" Properties=species:S:1:pos:R:3:force:R:3 energy=7.734214e-03 dipole="-4.246920e-02 -4.637425e-15 -3.713455e-14" pol="2.580425e+01 -7.332556e-10 -5.842251e-11 -7.332556e-10 1.201777e+01 1.896781e-12 -5.842251e-11 1.896781e-12 1.201777e+01" pbc="T T T"
O 1.165798e+00 -2.967776e-12 6.401486e-12 -5.343153e-01 -1.592695e-15 -5.035662e-13
C -4.133057e-03 -3.060731e-12 5.925031e-12 1.781637e+00 1.613764e-13 1.043075e-12
O -1.155792e+00 -3.149579e-12 5.500414e-12 -1.247428e+00 -1.068218e-13 -5.978956e-13
3
Lattice="1.800000e+01 0.000000e+00 0.000000e+00 0.000000e+00 1.800000e+01 0.000000e+00 0.000000e+00 0.000000e+00 1.800000e+01" Properties=species:S:1:pos:R:3:force:R:3 energy=-2.738603e-04 dipole="1.465470e-02 -2.173983e-15 -2.540851e-14" pol="2.597184e+01 2.633260e-11 2.888594e-10 2.633260e-11 1.206020e+01 -2.018758e-12 2.888594e-10 -2.018758e-12 1.206020e+01" pbc="T T T"
O 1.166316e+00 -3.132136e-12 6.900833e-12 1.905775e-01 1.663855e-14 -1.746785e-13
C 4.790536e-03 -3.145324e-12 6.538001e-12 -5.997050e-01 1.190658e-14 2.574082e-13
O -1.163069e+00 -3.151808e-12 6.229089e-12 4.091660e-01 -6.852722e-15 -8.775329e-14
3
Lattice="1.800000e+01 0.000000e+00 0.000000e+00 0.000000e+00 1.800000e+01 0.000000e+00 0.000000e+00 0.000000e+00 1.800000e+01" Properties=species:S:1:pos:R:3:force:R:3 energy=9.299901e-03 dipole="-4.213272e-02 -6.351473e-16 8.639938e-15" pol="2.572171e+01 9.874441e-11 -3.854506e-10 9.874441e-11 1.199527e+01 3.734222e-12 -3.854506e-10 3.734222e-12 1.199527e+01" pbc="T T T"
O 1.163868e+00 -3.229933e-12 7.208795e-12 -3.230551e-01 1.001990e-14 7.658420e-15
C -4.101748e-03 -3.192196e-12 7.000530e-12 1.788085e+00 -1.797556e-14 1.301793e-13
O -1.153984e+00 -3.149360e-12 6.764336e-12 -1.465134e+00 1.130273e-13 -2.085582e-13
3
Lattice="1.800000e+01 0.000000e+00 0.000000e+00 0.000000e+00 1.800000e+01 0.000000e+00 0.000000e+00 0.000000e+00 1.800000e+01" Properties=species:S:1:pos:R:3:force:R:3 energy=4.691099e-03 dipole="1.833020e-02 2.242305e-15 4.109145e-14" pol="2.621391e+01 -3.178592e-10 -4.107612e-10 -3.178592e-10 1.212524e+01 3.785985e-12 -4.107612e-10 3.785985e-12 1.212524e+01" pbc="T T T"
O 1.171485e+00 -3.459343e-12 7.778537e-12 -3.376628e-01 1.106222e-13 2.925393e-13
C 5.348617e-03 -3.265545e-12 7.716206e-12 -7.250195e-01 7.673142e-14 -6.427954e-13
O -1.168762e+00 -3.079570e-12 7.577630e-12 1.062715e+00 -1.429466e-13 3.842536e-13
3
Lattice="1.800000e+01 0.000000e+00 0.000000e+00 0.000000e+00 1.800000e+01 0.000000e+00 0.000000e+00 0.000000e+00 1.800000e+01" Properties=species:S:1:pos:R:3:force:R:3 energy=7.520572e-03 dipole="4.462361e-02 -2.265448e-14 -1.884565e-14" pol="2.595480e+01 2.091439e-10 -1.386559e-10 2.091439e-10 1.205893e+01 4.000641e-12 -1.386559e-10 4.000641e-12 1.205893e+01" pbc="T T T"
O 1.163991e+00 -3.536294e-12 7.970106e-12 8.937552e-01 -2.334027e-13 -1.249725e-13
C 9.450135e-03 -3.305550e-12 7.860888e-12 -1.833125e+00 4.941776e-13 2.918001e-13
O -1.164368e+00 -3.051192e-12 7.808089e-12 9.394743e-01 -2.620327e-13 -1.632061e-13
3
Lattice="1.800000e+01 0.000000e+00 0.000000e+00 0.000000e+00 1.800000e+01 0.000000e+00 0.000000e+00 0.000000e+00 1.800000e+01" Properties=species:S:1:pos:R:3:force:R:3 energy=1.186965e-02 dipole="4.279382e-02 -1.659864e-14 -3.130933e-14" pol="2.624270e+01 -3.024245e-10 5.099546e-10 -3.024245e-10 1.213627e+01 3.109364e-12 5.099546e-10 3.109364e-12 1.213627e+01" pbc="T T T"
O 1.170525e+00 -3.782342e-12 8.586733e-12 1.122740e-01 1.150844e-14 -2.128892e-13
C 9.195946e-03 -3.385677e-12 8.480558e-12 -1.688005e+00 5.465667e-13 4.529638e-13
O -1.170764e+00 -2.982913e-12 8.442622e-12 1.575795e+00 -5.077891e-13 -2.187291e-13
3
Lattice="1.800000e+01 0.000000e+00 0.000000e+00 0.000000e+00 1.800000e+01 0.000000e+00 0.000000e+00 0.000000e+00 1.800000e+01" Properties=species:S:1:pos:R:3:force:R:3 energy=6.399251e-03 dipole="-3.984539e-02 2.000828e-14 -1.923875e-14" pol="2.604836e+01 5.992385e-10 2.883794e-10 5.992385e-10 1.208345e+01 4.238644e-12 2.883794e-10 4.238644e-12 1.208345e+01" pbc="T T T"
O 1.171080e+00 -3.885121e-12 8.903787e-12 -1.073531e+00 4.530832e-13 -3.361305e-13
C -3.861727e-03 -3.426131e-12 8.797773e-12 1.614929e+00 -7.322503e-13 4.504326e-13
O -1.161546e+00 -2.985975e-12 8.733865e-12 -5.414869e-01 3.504999e-13 -2.160153e-13
3
Lattice="1.800000e+01 0.000000e+00 0.000000e+00 0.000000e+00 1.800000e+01 0.000000e+00 0.000000e+00 0.000000e+00 1.800000e+01" Properties=species:S:1:pos:R:3:force:R:3 energy=9.420884e-03 dipole="-4.476724e-02 2.216617e-14 -3.113927e-14" pol="2.612354e+01 5.035506e-10 6.328195e-11 5.035506e-10 1.210455e+01 -1.873141e-12 6.328195e-11 -1.873141e-12 1.210455e+01" pbc="T T T"
O 1.173004e+00 -4.101896e-12 9.746724e-12 -1.338301e+00 6.014229e-13 -3.674637e-13
C -4.676819e-03 -3.551185e-12 9.545519e-12 1.795956e+00 -8.822225e-13 7.295004e-13
O -1.162931e+00 -3.011366e-12 9.407124e-12 -4.577419e-01 2.301060e-13 -3.384340e-13
3
Lattice="1.800000e+01 0.000000e+00 0.000000e+00 0.000000e+00 1.800000e+01 0.000000e+00 0.000000e+00 0.000000e+00 1.800000e+01" Properties=species:S:1:pos:R:3:force:R:3 energy=-3.219030e-04 dipole="-1.506237e-02 6.459359e-15 2.160791e-14" pol="2.594002e+01 -9.988681e-10 -1.837275e-10 -9.988681e-10 1.205168e+01 9.284925e-13 -1.837275e-10 9.284925e-13 1.205168e+01" pbc="T T T"
O 1.167228e+00 -4.271179e-12 1.040545e-11 -3.385208e-01 1.810953e-13 1.474843e-13
C 2.084509e-06 -3.656708e-12 1.014861e-11 6.191640e-01 -3.281913e-13 -2.153102e-13
O -1.160719e+00 -3.042163e-12 9.837409e-12 -2.806836e-01 1.515256e-13 1.728171e-13
3
Lattice="1.800000e+01 0.000000e+00 0.000000e+00 0.000000e+00 1.800000e+01 0.000000e+00 0.000000e+00 0.000000e+00 1.800000e+01" Properties=species:S:1:pos:R:3:force:R:3 energy=1.053524e-02 dipole="-3.911589e-02 2.653414e-14 4.012822e-15" pol="2.564281e+01 -6.142395e-11 4.725236e-10 -6.142395e-11 1.197339e+01 2.658622e-13 4.725236e-10 2.658622e-13 1.197339e+01" pbc="T T T"
O 1.161786e+00 -4.397016e-12 1.091158e-11 -6.521623e-02 9.703725e-14 1.259278e-13
C -3.740826e-03 -3.734939e-12 1.056026e-11 1.678243e+00 -1.057489e-12 3.359600e-13
O -1.152511e+00 -3.092161e-12 1.018154e-11 -1.613120e+00 9.996029e-13 -3.591380e-13
3
Lattice="1.800000e+01 0.000000e+00 0.000000e+00 0.000000e+00 1.800000e+01 0.000000e+00 0.000000e+00 0.000000e+00 1.800000e+01" Properties=species:S:1:pos:R:3:force:R:3 energy=6.092831e-04 dipole="-2.970283e-03 1.097666e-14 1.175907e-14" pol="2.574499e+01 -7.002790e-10 1.528395e-10 -7.002790e-10 1.199871e+01 -3.010120e-12 1.528395e-10 -3.010120e-12 1.199871e+01" pbc="T T T"
O 1.162070e+00 -4.593828e-12 1.179322e-11 4.043935e-01 -1.762097e-13 2.394131e-13
C 1.862182e-03 -3.880639e-12 1.133027e-11 1.254625e-01 -2.498281e-13 -4.615371e-14
O -1.157069e+00 -3.187954e-12 1.084326e-11 -5.298645e-01 4.285758e-13 -1.649248e-13
3
Lattice="1.800000e+01 0.000000e+00 0.000000e+00 0.000000e+00 1.800000e+01 0.000000e+00 0.000000e+00 0.000000e+00 1.800000e+01" Properties=species:S:1:pos:R:3:force:R:3 energy=5.833989e-03 dipole="3.582691e-02 -9.179804e-15 2.510627e-14" pol="2.609769e+01 1.105416e-10 -2.247354e-10 1.105416e-10 1.209613e+01 4.430287e-13 -2.247354e-10 4.430287e-13 1.209613e+01" pbc="T T T"
O 1.167619e+00 -4.781366e-12 1.270558e-11 3.259514e-01 -8.480338e-14 1.671428e-13
C 7.944164e-03 -4.052100e-12 1.213873e-11 -1.441655e+00 6.266729e-13 -7.756333e-13
O -1.167268e+00 -3.342452e-12 1.155243e-11 1.115779e+00 -5.260099e-13 5.986575e-13
3
Lattice="1.800000e+01 0.000000e+00 0.000000e+00 0.000000e+00 1.800000e+01 0.000000e+00 0.000000e+00 0.000000e+00 1.800000e+01" Properties=species:S:1:pos:R:3:force:R:3 energy=-1.247048e-03 dipole="-4.292726e-03 -1.146918e-14 -1.301399e-14" pol="2.591344e+01 -1.014130e-11 1.992303e-10 -1.014130e-11 1.204416e+01 1.738284e-13 1.992303e-10 1.738284e-13 1.204416e+01" pbc="T T T"
O 1.165903e+00 -4.937673e-12 1.380846e-11 -5.532522e-02 -1.569187e-13 -1.879236e-13
C 1.589193e-03 -4.294627e-12 1.309746e-11 1.770798e-01 1.688703e-13 2.966231e-13
O -1.160872e+00 -3.613329e-12 1.241283e-11 -1.217665e-01 -6.799856e-14 -1.973017e-13
3
Lattice="1.800000e+01 0.000000e+00 0.000000e+00 0.000000e+00 1.800000e+01 0.000000e+00 0.000000e+00 0.000000e+00 1.800000e+01" Properties=species:S:1:pos:R:3:force:R:3 energy=3.595713e-03 dipole="-2.121349e-02 1.032642e-14 -2.994807e-14" pol="2.570506e+01 1.188123e-10 -1.478066e-10 1.188123e-10 1.198861e+01 -1.287907e-12 -1.478066e-10 -1.287907e-12 1.198861e+01" pbc="T T T"
O 1.162125e+00 -4.997064e-12 1.417051e-11 1.319622e-01 -1.599068e-13 -1.213744e-13
C -1.059788e-03 -4.367502e-12 1.343366e-11 9.015049e-01 -4.627692e-13 7.612061e-13
O -1.155141e+00 -3.736386e-12 1.273078e-11 -1.033525e+00 5.279564e-13 -7.641179e-13
3
Lattice="1.800000e+01 0.000000e+00 0.000000e+00 0.000000e+00 1.800000e+01 0.000000e+00 0.000000e+00 0.000000e+00 1.800000e+01" Properties=species:S:1:pos:R:3:force:R:3 energy=5.892449e-03 dipole="-3.691277e-02 3.089381e-14 -2.608785e-14" pol="2.608121e+01 2.563636e-10 -2.066825e-10 2.563636e-10 1.209185e+01 5.536207e-12 -2.066825e-10 5.536207e-12 1.209185e+01" pbc="T T T"
O 1.171475e+00 -5.128896e-12 1.497837e-11 -1.097017e+00 5.969302e-13 -7.606497e-13
C -3.592995e-03 -4.545936e-12 1.422617e-11 1.488896e+00 -9.364845e-13 9.952717e-13
O -1.162660e+00 -4.001052e-12 1.348665e-11 -3.919580e-01 2.466100e-13 -2.512896e-13
3
Lattice="1.800000e+01 0.000000e+00 0.000000e+00 0.000000e+00 1.800000e+01 0.000000e+00 0.000000e+00 0.000000e+00 1.800000e+01" Properties=species:S:1:pos:R:3:force:R:3 energy=3.747174e-03 dipole="-1.130895e-02 1.547230e-14 9.719834e-15" pol="2.564933e+01 3.757240e-10 -2.288299e-10 3.757240e-10 1.197299e+01 3.374799e-12 -2.288299e-10 3.374799e-12 1.197299e+01" pbc="T T T"
O 1.160243e+00 -5.256286e-12 1.563398e-11 4.805196e-01 -1.246656e-13 3.151509e-13
C 4.353407e-04 -4.731472e-12 1.495539e-11 4.842570e-01 -3.849333e-13 5.805905e-14
O -1.154526e+00 -4.227612e-12 1.424347e-11 -9.648070e-01 5.365980e-13 -4.747674e-13
3
Lattice="1.800000e+01 0.000000e+00 0.000000e+00 0.000000e+00 1.800000e+01 0.000000e+00 0.000000e+00 0.000000e+00 1.800000e+01" Properties=species:S:1:pos:R:3:force:R:3 energy=3.253803e-03 dipole="-1.934348e-02 -2.118753e-14 -3.432890e-14" pol="2.615768e+01 2.970792e-10 2.719934e-10 2.970792e-10 1.211031e+01 -1.002365e-12 2.719934e-10 -1.002365e-12 1.211031e+01" pbc="T T T"
O 1.172164e+00 -5.505865e-12 1.666213e-11 -9.492968e-01 1.098821e-13 -5.905459e-13
C -8.975601e-04 -5.076029e-12 1.608531e-11 7.712179e-01 1.438748e-13 7.160815e-13
O -1.165557e+00 -4.586867e-12 1.555753e-11 1.780402e-01 -3.220264e-13 -9.366221e-14
3
Lattice="1.800000e+01 0.000000e+00 0.000000e+00 0.000000e+00 1.800000e+01 0.000000e+00 0.000000e+00 0.000000e+00 1.800000e+01" Properties=species:S:1:pos:R:3:force:R:3 energy=3.892940e-03 dipole="2.838130e-02 3.830244e-16 3.237376e-14" pol="2.576335e+01 -1.298329e-10 9.933402e-11 -1.298329e-10 1.200500e+01 -6.870847e-13 9.933402e-11 -6.870847e-13 1.200500e+01" pbc="T T T"
O 1.160402e+00 -5.655642e-12 1.719096e-11 1.036883e+00 -2.410943e-13 5.583901e-13
C 6.567586e-03 -5.239320e-12 1.675112e-11 -1.196588e+00 2.119564e-13 -7.425497e-13
O -1.159465e+00 -4.841273e-12 1.626095e-11 1.597819e-01 1.903394e-14 2.974731e-13
3
Lattice="1.800000e+01 0.000000e+00 0.000000e+00 0.000000e+00 1.800000e+01 0.000000e+00 0.000000e+00 0.000000e+00 1.800000e+01" Properties=species:S:1:pos:R:3:force:R:3 energy=-1.244185e-03 dipole="-1.918910e-03 2.152527e-14 7.062950e-15" pol="2.588939e+01 1.508024e-10 3.885800e-11 1.508024e-10 1.203767e+01 1.390689e-12 3.885800e-11 1.390689e-12 1.203767e+01" pbc="T T T"
O 1.165071e+00 -5.752038e-12 1.772117e-11 5.432117e-02 1.859891e-13 -8.595195e-15
C 1.812516e-03 -5.410581e-12 1.734306e-11 7.940730e-02 -3.609751e-13 -9.303048e-14
O -1.160618e+00 -5.110953e-12 1.694880e-11 -1.337339e-01 1.459510e-13 4.412807e-15
3
Lattice="1.800000e+01 0.000000e+00 0.000000e+00 0.000000e+00 1.800000e+01 0.000000e+00 0.000000e+00 0.000000e+00 1.800000e+01" Properties=species:S:1:pos:R:3:force:R:3 energy=1.227616e-02 dipole="-4.377226e-02 3.202511e-14 2.751599e-14" pol="2.624431e+01 6.274649e-10 -9.635075e-11 6.274649e-10 1.213688e+01 2.994828e-12 -9.635075e-11 2.994828e-12 1.213688e+01" pbc="T T T"
O 1.175338e+00 -5.960612e-12 1.883356e-11 -1.596678e+00 3.492210e-13 9.474298e-14
C -4.863950e-03 -5.829498e-12 1.870803e-11 1.726337e+00 -5.478767e-13 -2.507464e-13
O -1.166009e+00 -5.752325e-12 1.852313e-11 -1.297246e-01 2.015367e-13 1.594652e-13
3
Lattice="1.800000e+01 0.000000e+00 0.000000e+00 0.000000e+00 1.800000e+01 0.000000e+00 0.000000e+00 0.000000e+00 1.800000e+01" Properties=species:S:1:pos:R:3:force:R:3 energy=5.583378e-04 dipole="-1.725270e-02 -2.449021e-14 -2.203750e-14" pol="2.602913e+01 -1.868529e-10 3.673068e-10 -1.868529e-10 1.207574e+01 2.862611e-12 3.673068e-10 2.862611e-12 1.207574e+01" pbc="T T T"
O 1.169052e+00 -6.011994e-12 1.909096e-11 -6.004529e-01 -1.800830e-13 -1.522774e-13
C -6.605195e-04 -5.960512e-12 1.896059e-11 7.003935e-01 3.277817e-13 3.719347e-13
O -1.162904e+00 -5.856211e-12 1.887092e-11 -9.998307e-02 -1.951570e-13 -1.839384e-13
3
Lattice="1.800000e+01 0.000000e+00 0.000000e+00 0.000000e+00 1.800000e+01 0.000000e+00 0.000000e+00 0.000000e+00 1.800000e+01" Properties=species:S:1:pos:R:3:force:R:3 energy=7.275682e-03 dipole="-4.328866e-02 1.401350e-14 2.941189e-14" pol="2.601175e+01 -3.139622e-10 -1.604884e-10 -3.139622e-10 1.207412e+01 9.085608e-12 -1.604884e-10 9.085608e-12 1.207412e+01" pbc="T T T"
O 1.170059e+00 -6.205602e-12 1.963094e-11 -1.050217e+00 1.116953e-13 2.548748e-13
C -4.775055e-03 -6.139785e-12 1.962409e-11 1.763949e+00 -2.276395e-13 -4.505924e-13
O -1.160880e+00 -6.095619e-12 1.955284e-11 -7.138300e-01 1.823754e-13 2.064163e-13
3
Lattice="1.800000e+01 0.000000e+00 0.000000e+00 0.000000e+00 1.800000e+01 0.000000e+00 0.000000e+00 0.000000e+00 1.800000e+01" Properties=species:S:1:pos:R:3:force:R:3 energy=7.597496e-03 dipole="-4.208028e-02 2.242661e-14 3.556553e-14" pol="2.607752e+01 5.737660e-10 3.319492e-10 5.737660e-10 1.209167e+01 5.495922e-12 3.319492e-10 5.495922e-12 1.209167e+01" pbc="T T T"
O 1.171420e+00 -6.855009e-12 2.104688e-11 -1.182843e+00 2.936794e-13 3.645417e-13
C -4.653579e-03 -6.697195e-12 2.119807e-11 1.698787e+00 -4.508309e-13 -6.818208e-13
O -1.162488e+00 -6.575929e-12 2.128024e-11 -5.160322e-01 2.205267e-13 2.839102e-13
3
Lattice="1.800000e+01 0.000000e+00 0.000000e+00 0.000000e+00 1.800000e+01 0.000000e+00 0.000000e+00 0.000000e+00 1.800000e+01" Properties=species:S:1:pos:R:3:force:R:3 energy=7.727782e-03 dipole="-4.461953e-02 2.294085e-14 4.348034e-14" pol="2.600364e+01 1.913908e-10 2.846923e-10 1.913908e-10 1.207214e+01 -1.494461e-12 2.846923e-10 -1.494461e-12 1.207214e+01" pbc="T T T"
O 1.169815e+00 -7.961090e-12 2.263504e-11 -1.055395e+00 4.636774e-13 7.273827e-13
C -5.113969e-03 -7.541232e-12 2.311336e-11 1.820425e+00 -8.049569e-13 -1.156728e-12
O -1.160742e+00 -7.145261e-12 2.352586e-11 -7.651311e-01 3.519531e-13 4.770570e-13
3
Lattice="1.800000e+01 0.000000e+00 0.000000e+00 0.000000e+00 1.800000e+01 0.000000e+00 0.000000e+00 0.000000e+00 1.800000e+01" Properties=species:S:1:pos:R:3:force:R:3 energy=3.039269e-03 dipole="-2.650669e-02 -7.024953e-15 8.023406e-15" pol="2.578413e+01 -6.077861e-10 4.918077e-10 -6.077861e-10 1.201045e+01 -6.159233e-13 4.918077e-10 -6.159233e-13 1.201045e+01" pbc="T T T"
O 1.163717e+00 -1.016402e-11 2.575462e-11 -1.751844e-01 -1.271120e-14 1.273293e-13
C -2.394170e-03 -9.523520e-12 2.646272e-11 1.114204e+00 -3.018685e-13 -5.993054e-13
O -1.157107e+00 -8.842755e-12 2.717944e-11 -9.390912e-01 3.672687e-13 5.153376e-13
3
Lattice="1.800000e+01 0.000000e+00 0.000000e+00 0.000000e+00 1.800000e+01 0.000000e+00 0.000000e+00 0.000000e+00 1.800000e+01" Properties=species:S:1:pos:R:3:force:R:3 energy=3.811761e-04 dipole="1.828667e-02 -3.865934e-14 -1.849822e-14" pol="2.586499e+01 -1.101791e-09 1.628642e-10 -1.101791e-09 1.203166e+01 -1.776642e-12 1.628642e-10 -1.776642e-12 1.203166e+01" pbc="T T T"
O 1.162921e+00 -1.047165e-11 2.621416e-11 5.443502e-01 -5.485843e-13 -3.715664e-13
C 4.592438e-03 -9.813249e-12 2.688178e-11 -7.597588e-01 7.672538e-13 5.144274e-13
O -1.161617e+00 -9.095920e-12 2.756720e-11 2.154592e-01 -2.736858e-13 -1.527201e-13
3
Lattice="1.800000e+01 0.000000e+00 0.000000e+00 0.000000e+00 1.800000e+01 0.000000e+00 0.000000e+00 0.000000e+00 1.800000e+01" Properties=species:S:1:pos:R:3:force:R:3 energy=3.924484e-03 dipole="3.245560e-02 -1.166384e-14 -3.328182e-14" pol="2.583359e+01 3.274818e-10 2.616461e-11 3.274818e-10 1.202444e+01 -4.773351e-13 2.616461e-11 -4.773351e-13 1.202444e+01" pbc="T T T"
O 1.161291e+00 -1.100905e-11 2.705268e-11 9.402263e-01 -5.017396e-13 -5.658190e-13
C 6.769751e-03 -1.029319e-11 2.760747e-11 -1.355173e+00 7.420591e-13 9.218910e-13
O -1.161727e+00 -9.582340e-12 2.820585e-11 4.150322e-01 -1.932103e-13 -3.000126e-13
3
Lattice="1.800000e+01 0.000000e+00 0.000000e+00 0.000000e+00 1.800000e+01 0.000000e+00 0.000000e+00 0.000000e+00 1.800000e+01" Properties=species:S:1:pos:R:3:force:R:3 energy=6.613933e-03 dipole="-2.449433e-02 -2.230170e-14 6.753130e-15" pol="2.623903e+01 -7.360539e-10 6.088727e-10 -7.360539e-10 1.213253e+01 -8.814111e-13 6.088727e-10 -8.814111e-13 1.213253e+01" pbc="T T T"
O 1.173757e+00 -1.164358e-11 2.810042e-11 -1.236552e+00 4.618563e-13 4.561976e-13
C -2.238354e-03 -1.099080e-11 2.853878e-11 9.656310e-01 -4.205157e-15 -3.384202e-13
O -1.167570e+00 -1.027055e-11 2.897693e-11 2.708812e-01 -4.229937e-13 -1.151076e-13
3
Lattice="1.800000e+01 0.000000e+00 0.000000e+00 0.000000e+00 1.800000e+01 0.000000e+00 0.000000e+00 0.000000e+00 1.800000e+01" Properties=species:S:1:pos:R:3:force:R:3 energy=7.930271e-03 dipole="4.028568e-02 -3.096663e-14 3.787749e-15" pol="2.574985e+01 -1.533944e-10 -4.933258e-10 -1.533944e-10 1.200268e+01 8.995672e-15 -4.933258e-10 8.995672e-15 1.200268e+01" pbc="T T T"
O 1.158825e+00 -1.194647e-11 2.864496e-11 1.345068e+00 -8.269620e-13 -2.829149e-13
C 7.904470e-03 -1.132575e-11 2.898854e-11 -1.702765e+00 1.105750e-12 2.881249e-13
O -1.160323e+00 -1.067299e-11 2.931123e-11 3.577982e-01 -2.451410e-13 5.941539e-15
3
Lattice="1.800000e+01 0.000000e+00 0.000000e+00 0.000000e+00 1.800000e+01 0.000000e+00 0.000000e+00 0.000000e+00 1.800000e+01" Properties=species:S:1:pos:R:3:force:R:3 energy=1.066042e-02 dipole="3.906649e-02 -2.795531e-14 -1.982917e-14" pol="2.563873e+01 4.485332e-10 9.155167e-11 4.485332e-10 1.197227e+01 -6.189709e-14 9.155167e-11 -6.189709e-14 1.197227e+01" pbc="T T T"
O 1.156352e+00 -1.233826e-11 2.941054e-11 1.623343e+00 -8.698312e-13 -3.024976e-13
C 7.662517e-03 -1.178032e-11 2.954516e-11 -1.677080e+00 8.660507e-13 4.692740e-13
O -1.157760e+00 -1.119978e-11 2.971631e-11 5.383030e-02 -7.657782e-14 -1.209881e-13
3
Lattice="1.800000e+01 0.000000e+00 0.000000e+00 0.000000e+00 1.800000e+01 0.000000e+00 0.000000e+00 0.000000e+00 1.800000e+01" Properties=species:S:1:pos:R:3:force:R:3 energy=1.562142e-03 dipole="-1.686329e-02 -3.215390e-14 -1.392368e-14" pol="2.609883e+01 -5.572997e-10 2.163036e-10 -5.572997e-10 1.209439e+01 2.456063e-13 2.163036e-10 2.456063e-13 1.209439e+01" pbc="T T T"
O 1.170096e+00 -1.264623e-11 2.995527e-11 -7.614395e-01 1.906652e-14 -1.175931e-13
C -1.107704e-03 -1.214865e-11 2.997341e-11 6.778828e-01 2.505433e-13 2.337285e-13
O -1.164997e+00 -1.157879e-11 3.002475e-11 8.351895e-02 -3.032983e-13 -1.924592e-13
3
Lattice="1.800000e+01 0.000000e+00 0.000000e+00 0.000000e+00 1.800000e+01 0.000000e+00 0.000000e+00 0.000000e+00 1.800000e+01" Properties=species:S:1:pos:R:3:force:R:3 energy=2.395924e-03 dipole="-6.017652e-04 -3.801397e-14 -1.074857e-14" pol="2.618440e+01 6.116845e-10 -6.735564e-10 6.116845e-10 1.211668e+01 -7.560846e-14 -6.735564e-10 -7.560846e-14 1.211668e+01" pbc="T T T"
O 1.171030e+00 -1.324071e-11 3.096028e-11 -6.495417e-01 -1.105607e-14 -1.586042e-13
C 1.409313e-03 -1.280327e-11 3.076054e-11 2.388299e-02 5.796409e-13 2.198796e-13
O -1.167950e+00 -1.228586e-11 3.058464e-11 6.256575e-01 -6.332812e-13 -5.933418e-14
3
Lattice="1.800000e+01 0.000000e+00 0.000000e+00 0.000000e+00 1.800000e+01 0.000000e+00 0.000000e+00 0.000000e+00 1.800000e+01" Properties=species:S:1:pos:R:3:force:R:3 energy=-8.115815e-05 dipole="1.681736e-02 -2.989360e-14 -1.095873e-14" pol="2.592559e+01 1.071872e-10 5.777912e-10 1.071872e-10 1.204790e+01 -3.191351e-12 5.777912e-10 -3.191351e-12 1.204790e+01" pbc="T T T"
O 1.164090e+00 -1.408595e-11 3.238597e-11 3.553403e-01 -3.052496e-13 4.378414e-14
C 4.076228e-03 -1.371377e-11 3.186553e-11 -6.927461e-01 6.116274e-13 -1.936931e-14
O -1.163197e+00 -1.328774e-11 3.137567e-11 3.374512e-01 -2.740361e-13 9.543787e-15
3
Lattice="1.800000e+01 0.000000e+00 0.000000e+00 0.000000e+00 1.800000e+01 0.000000e+00 0.000000e+00 0.000000e+00 1.800000e+01" Properties=species:S:1:pos:R:3:force:R:3 energy=3.183120e-03 dipole="1.381773e-02 3.410732e-14 2.777765e-14" pol="2.618386e+01 -3.487799e-11 -4.871249e-10 -3.487799e-11 1.211691e+01 -2.728288e-13 -4.871249e-10 -2.728288e-13 1.211691e+01" pbc="T T T"
O 1.170015e+00 -1.481881e-11 3.375123e-11 -3.571317e-01 4.525511e-13 -9.682865e-14
C 3.555992e-03 -1.456446e-11 3.300198e-11 -5.487856e-01 -4.404214e-13 -6.297636e-13
O -1.168910e+00 -1.438466e-11 3.221184e-11 9.059437e-01 1.259293e-13 7.619753e-13
3
Lattice="1.800000e+01 0.000000e+00 0.000000e+00 0.000000e+00 1.800000e+01 0.000000e+00 0.000000e+00 0.000000e+00 1.800000e+01" Properties=species:S:1:pos:R:3:force:R:3 energy=1.180394e-02 dipole="-4.230292e-02 2.551568e-14 -4.065755e-14" pol="2.564134e+01 -2.685329e-10 -1.798081e-10 -2.685329e-10 1.197339e+01 1.084977e-12 -1.798081e-10 1.084977e-12 1.197339e+01" pbc="T T T"
O 1.160840e+00 -1.612019e-11 3.564956e-11 -1.237627e-01 1.409987e-13 -1.600620e-13
C -5.319431e-03 -1.605027e-11 3.480394e-11 1.815696e+00 -3.404341e-13 1.407946e-12
O -1.153358e+00 -1.601919e-11 3.398207e-11 -1.692032e+00 2.289376e-13 -1.271028e-12
3
Lattice="1.800000e+01 0.000000e+00 0.000000e+00 0.000000e+00 1.800000e+01 0.000000e+00 0.000000e+00 0.000000e+00 1.800000e+01" Properties=species:S:1:pos:R:3:force:R:3 energy=3.547057e-03 dipole="-3.041891e-02 2.751159e-14 -5.534755e-15" pol="2.581733e+01 -9.507431e-11 2.112536e-11 -9.507431e-11 1.201982e+01 4.194050e-12 2.112536e-11 4.194050e-12 1.201982e+01" pbc="T T T"
O 1.164158e+00 -1.684345e-11 3.633055e-11 -3.350955e-01 2.152592e-13 -1.755132e-13
C -3.537753e-03 -1.672420e-11 3.565322e-11 1.272914e+00 -4.860214e-13 5.977978e-13
O -1.158141e+00 -1.665908e-11 3.495740e-11 -9.378999e-01 2.657386e-13 -5.652163e-13
3
Lattice="1.800000e+01 0.000000e+00 0.000000e+00 0.000000e+00 1.800000e+01 0.000000e+00 0.000000e+00 0.000000e+00 1.800000e+01" Properties=species:S:1:pos:R:3:force:R:3 energy=7.976230e-03 dipole="3.245094e-02 8.028028e-15 4.538125e-14" pol="2.622290e+01 -1.258402e-10 -2.067891e-10 -1.258402e-10 1.212923e+01 -2.185769e-12 -2.067891e-10 -2.185769e-12 1.212923e+01" pbc="T T T"
O 1.169538e+00 -1.720035e-11 3.662978e-11 -6.245054e-02 1.472605e-13 2.400418e-13
C 6.332302e-03 -1.705392e-11 3.605894e-11 -1.282729e+00 -7.797498e-14 -1.130127e-12
O -1.170994e+00 -1.693240e-11 3.541979e-11 1.345233e+00 1.100220e-14 9.406193e-13
3
Lattice="1.800000e+01 0.000000e+00 0.000000e+00 0.000000e+00 1.800000e+01 0.000000e+00 0.000000e+00 0.000000e+00 1.800000e+01" Properties=species:S:1:pos:R:3:force:R:3 energy=2.990479e-04 dipole="1.888288e-02 -2.202084e-14 -1.449251e-14" pol="2.595941e+01 -5.972918e-11 2.760260e-10 -5.972918e-11 1.205713e+01 -5.137695e-13 2.760260e-10 -5.137695e-13 1.205713e+01" pbc="T T T"
O 1.164445e+00 -1.789212e-11 3.719037e-11 3.125395e-01 -1.571534e-13 -5.094522e-14
C 4.122768e-03 -1.766591e-11 3.674201e-11 -7.741796e-01 4.413463e-13 1.729514e-14
O -1.164358e+00 -1.740071e-11 3.633089e-11 4.616897e-01 -2.778412e-13 3.756428e-14
3
Lattice="1.800000e+01 0.000000e+00 0.000000e+00 0.000000e+00 1.800000e+01 0.000000e+00 0.000000e+00 0.000000e+00 1.800000e+01" Properties=species:S:1:pos:R:3:force:R:3 energy=1.174014e-02 dipole="4.239356e-02 -3.641102e-14 1.184858e-14" pol="2.564418e+01 -5.305530e-10 -4.881657e-10 -5.305530e-10 1.197417e+01 2.386196e-12 -4.881657e-10 2.386196e-12 1.197417e+01" pbc="T T T"
O 1.155814e+00 -1.838964e-11 3.755754e-11 1.686211e+00 -6.582052e-13 3.697096e-13
C 7.731274e-03 -1.808632e-11 3.726414e-11 -1.818870e+00 8.421424e-13 -4.156196e-13
O -1.158513e+00 -1.772652e-11 3.696814e-11 1.327582e-01 -2.698629e-13 1.188028e-13
3
Lattice="1.800000e+01 0.000000e+00 0.000000e+00 0.000000e+00 1.800000e+01 0.000000e+00 0.000000e+00 0.000000e+00 1.800000e+01" Properties=species:S:1:pos:R:3:force:R:3 energy=1.017485e-02 dipole="-4.402298e-02 2.832454e-14 -2.869307e-14" pol="2.616917e+01 8.015039e-10 -2.301111e-10 8.015039e-10 1.211671e+01 4.259479e-12 -2.301111e-10 4.259479e-12 1.211671e+01" pbc="T T T"
O 1.172656e+00 -1.962386e-11 3.858583e-11 -1.430018e+00 7.047276e-13 -1.356445e-13
C -5.901435e-03 -1.913267e-11 3.855327e-11 1.754707e+00 -8.623428e-13 4.359564e-13
O -1.165331e+00 -1.866552e-11 3.857834e-11 -3.247677e-01 1.870558e-13 -1.839362e-13
3
Lattice="1.800000e+01 0.000000e+00 0.000000e+00 0.000000e+00 1.800000e+01 0.000000e+00 0.000000e+00 0.000000e+00 1.800000e+01" Properties=species:S:1:pos:R:3:force:R:3 energy=8.920815e-03 dipole="4.326304e-02 -4.720299e-14 -8.165051e-15" pol="2.575695e+01 3.638475e-10 4.238769e-10 3.638475e-10 1.200502e+01 -2.904524e-12 4.238769e-10 -2.904524e-12 1.200502e+01" pbc="T T T"
O 1.158173e+00 -2.059327e-11 3.942604e-11 1.394722e+00 -9.048945e-13 -2.760493e-13
C 7.749042e-03 -2.005585e-11 3.963068e-11 -1.827126e+00 1.290455e-12 3.199429e-13
O -1.161265e+00 -1.944719e-11 3.983693e-11 4.325116e-01 -4.805515e-13 -1.380329e-14
3
Lattice="1.800000e+01 0.000000e+00 0.000000e+00 0.000000e+00 1.800000e+01 0.000000e+00 0.000000e+00 0.000000e+00 1.800000e+01" Properties=species:S:1:pos:R:3:force:R:3 energy=6.852734e-03 dipole="2.830705e-02 -2.727052e-14 -3.266545e-14" pol="2.565070e+01 -2.318173e-10 4.190041e-11 -2.318173e-10 1.197441e+01 -1.073871e-13 4.190041e-11 -1.073871e-13 1.197441e+01" pbc="T T T"
O 1.156630e+00 -2.189404e-11 4.047192e-11 1.341623e+00 -8.458080e-13 -6.640305e-13
C 5.320786e-03 -2.122665e-11 4.093044e-11 -1.212508e+00 8.157674e-13 6.967647e-13
O -1.158117e+00 -2.053044e-11 4.143089e-11 -1.290435e-01 -3.101527e-14 -7.643707e-14
3
Lattice="1.800000e+01 0.000000e+00 0.000000e+00 0.000000e+00 1.800000e+01 0.000000e+00 0.000000e+00 0.000000e+00 1.800000e+01" Properties=species:S:1:pos:R:3:force:R:3 energy=3.861863e-03 dipole="3.407931e-02 -3.857260e-14 1.023868e-15" pol="2.590886e+01 1.051354e-09 2.659783e-10 1.051354e-09 1.204499e+01 5.535095e-13 2.659783e-10 5.535095e-13 1.204499e+01" pbc="T T T"
O 1.162066e+00 -2.250579e-11 4.097414e-11 7.769897e-01 -6.139318e-13 -3.028792e-13
C 6.215273e-03 -2.181687e-11 4.157019e-11 -1.408108e+00 1.139566e-12 4.670095e-13
O -1.164340e+00 -2.107980e-11 4.213698e-11 6.312058e-01 -4.764888e-13 -1.407409e-13
3
Lattice="1.800000e+01 0.000000e+00 0.000000e+00 0.000000e+00 1.800000e+01 0.000000e+00 0.000000e+00 0.000000e+00 1.800000e+01" Properties=species:S:1:pos:R:3:force:R:3 energy=7.672938e-03 dipole="-3.479418e-02 -4.642924e-15 4.844294e-15" pol="2.568551e+01 3.895218e-12 -2.353333e-10 3.895218e-12 1.198452e+01 6.596532e-12 -2.353333e-10 6.596532e-12 1.198452e+01" pbc="T T T"
O 1.161027e+00 -2.277734e-11 4.121846e-11 -8.897976e-02 -3.082331e-14 1.591154e-14
C -4.573945e-03 -2.208673e-11 4.183386e-11 1.483551e+00 -5.888037e-13 -6.189612e-13
O -1.155252e+00 -2.135336e-11 4.247074e-11 -1.394660e+00 7.538488e-13 6.721568e-13
3
Lattice="1.800000e+01 0.000000e+00 0.000000e+00 0.000000e+00 1.800000e+01 0.000000e+00 0.000000e+00 0.000000e+00 1.800000e+01" Properties=species:S:1:pos:R:3:force:R:3 energy=1.047090e-02 dipole="4.073694e-02 1.935215e-14 -3.366340e-14" pol="2.622148e+01 4.506408e-10 -2.165893e-11 4.506408e-10 1.213019e+01 -2.223385e-12 -2.165893e-11 -2.223385e-12 1.213019e+01" pbc="T T T"
O 1.168569e+00 -2.348518e-11 4.184737e-11 1.204101e-01 3.637262e-13 -5.929434e-14
C 7.246955e-03 -2.275363e-11 4.256049e-11 -1.611436e+00 2.305373e-13 1.144977e-12
O -1.171801e+00 -2.210116e-11 4.330285e-11 1.491092e+00 -5.401275e-13 -9.798543e-13
3
Lattice="1.800000e+01 0.000000e+00 0.000000e+00 0.000000e+00 1.800000e+01 0.000000e+00 0.000000e+00 0.000000e+00 1.800000e+01" Properties=species:S:1:pos:R:3:force:R:3 energy=8.842151e-03 dipole="4.170717e-02 1.782977e-14 -3.617922e-14" pol="2.614895e+01 9.950140e-11 -1.218305e-10 9.950140e-11 1.211086e+01 2.017158e-12 -1.218305e-10 2.017158e-12 1.211086e+01" pbc="T T T"
O 1.166857e+00 -2.388517e-11 4.224274e-11 3.248742e-01 2.018767e-13 -2.445177e-13
C 7.355931e-03 -2.318384e-11 4.298957e-11 -1.666854e+00 2.743621e-13 1.222310e-12
O -1.170257e+00 -2.255483e-11 4.376629e-11 1.342058e+00 -3.696029e-13 -9.211201e-13
3
Lattice="1.800000e+01 0.000000e+00 0.000000e+00 0.000000e+00 1.800000e+01 0.000000e+00 0.000000e+00 0.000000e+00 1.800000e+01" Properties=species:S:1:pos:R:3:force:R:3 energy=6.389364e-03 dipole="-4.105170e-02 -1.989704e-14 2.541597e-14" pol="2.600404e+01 -1.225602e-09 -2.438722e-11 -1.225602e-09 1.207168e+01 -1.200786e-12 -2.438722e-11 -1.200786e-12 1.207168e+01" pbc="T T T"
O 1.168431e+00 -2.483774e-11 4.331193e-11 -9.908586e-01 2.053001e-13 6.811430e-13
C -5.757393e-03 -2.429810e-11 4.406050e-11 1.674353e+00 -2.763500e-13 -1.109727e-12
O -1.162188e+00 -2.368802e-11 4.479077e-11 -6.835889e-01 6.668773e-15 4.731854e-13
3
Lattice="1.800000e+01 0.000000e+00 0.000000e+00 0.000000e+00 1.800000e+01 0.000000e+00 0.000000e+00 0.000000e+00 1.800000e+01" Properties=species:S:1:pos:R:3:force:R:3 energy=7.904428e-03 dipole="3.880903e-02 -4.291608e-14 -4.224272e-14" pol="2.572778e+01 -6.136268e-10 -2.535544e-10 -6.136268e-10 1.199649e+01 -1.236148e-12 -2.535544e-10 -1.236148e-12 1.199649e+01" pbc="T T T"
O 1.157484e+00 -2.511006e-11 4.364744e-11 1.371288e+00 -8.154266e-13 -9.227749e-13
C 6.734346e-03 -2.459361e-11 4.432539e-11 -1.645298e+00 1.095669e-12 1.271355e-12
O -1.160678e+00 -2.401992e-11 4.505155e-11 2.741078e-01 -3.064189e-13 -3.019422e-13
3
Lattice="1.800000e+01 0.000000e+00 0.000000e+00 0.000000e+00 1.800000e+01 0.000000e+00 0.000000e+00 0.000000e+00 1.800000e+01" Properties=species:S:1:pos:R:3:force:R:3 energy=6.594506e-03 dipole="-2.446249e-02 6.107897e-14 1.716852e-14" pol="2.623865e+01 2.692780e-10 1.414912e-10 2.692780e-10 1.213243e+01 1.764986e-12 1.414912e-10 1.764986e-12 1.213243e+01" pbc="T T T"
O 1.172764e+00 -2.541407e-11 4.395422e-11 -1.235076e+00 9.815471e-13 7.271188e-13
C -3.216759e-03 -2.483286e-11 4.463469e-11 9.644265e-01 -1.262236e-12 -6.892680e-13
O -1.168547e+00 -2.436244e-11 4.529318e-11 2.706101e-01 2.912268e-13 -9.405305e-14
3
Lattice="1.800000e+01 0.000000e+00 0.000000e+00 0.000000e+00 1.800000e+01 0.000000e+00 0.000000e+00 0.000000e+00 1.800000e+01" Properties=species:S:1:pos:R:3:force:R:3 energy=4.769911e-03 dipole="2.820100e-02 3.325371e-14 4.271226e-15" pol="2.614663e+01 -2.101504e-10 -8.965598e-11 -2.101504e-10 1.210825e+01 -8.886837e-13 -8.965598e-11 -8.886837e-13 1.210825e+01" pbc="T T T"
O 1.167535e+00 -2.578128e-11 4.439179e-11 3.691796e-02 3.487076e-13 2.218786e-15
C 5.078813e-03 -2.524545e-11 4.501251e-11 -1.126530e+00 -2.856424e-13 3.090851e-13
O -1.169624e+00 -2.480060e-11 4.560723e-11 1.089668e+00 -9.078450e-14 -4.787852e-13
3
Lattice="1.800000e+01 0.000000e+00 0.000000e+00 0.000000e+00 1.800000e+01 0.000000e+00 0.000000e+00 0.000000e+00 1.800000e+01" Properties=species:S:1:pos:R:3:force:R:3 energy=6.479048e-03 dipole="-4.178862e-02 -2.559569e-14 -5.555507e-15" pol="2.597129e+01 7.533892e-10 -2.796072e-10 7.533892e-10 1.206294e+01 3.520203e-12 -2.796072e-10 3.520203e-12 1.206294e+01" pbc="T T T"
O 1.167618e+00 -2.633416e-11 4.506414e-11 -9.265000e-01 3.370311e-14 3.166840e-13
C -5.980902e-03 -2.594328e-11 4.555825e-11 1.712356e+00 -1.263632e-13 -4.516901e-13
O -1.161519e+00 -2.548359e-11 4.609239e-11 -7.859544e-01 1.799609e-14 1.550342e-13
3
Lattice="1.800000e+01 0.000000e+00 0.000000e+00 0.000000e+00 1.800000e+01 0.000000e+00 0.000000e+00 0.000000e+00 1.800000e+01" Properties=species:S:1:pos:R:3:force:R:3 energy=4.178758e-03 dipole="-2.037617e-02 6.054096e-14 2.824950e-14" pol="2.618565e+01 1.995904e-10 4.930253e-10 1.995904e-10 1.211787e+01 4.636215e-13 4.930253e-10 4.636215e-13 1.211787e+01" pbc="T T T"
O 1.171260e+00 -2.658854e-11 4.530186e-11 -1.034890e+00 6.922432e-13 5.955956e-13
C -2.653310e-03 -2.614206e-11 4.580766e-11 8.092212e-01 -1.000004e-12 -7.239919e-13
O -1.167708e+00 -2.579191e-11 4.626747e-11 2.256301e-01 2.415958e-13 8.880148e-14
3
Lattice="1.800000e+01 0.000000e+00 0.000000e+00 0.000000e+00 1.800000e+01 0.000000e+00 0.000000e+00 0.000000e+00 1.800000e+01" Properties=species:S:1:pos:R:3:force:R:3 energy=8.196498e-03 dipole="4.160516e-02 2.857261e-14 5.999692e-15" pol="2.612084e+01 3.107751e-10 -3.842774e-10 3.107751e-10 1.210327e+01 -2.295338e-12 -3.842774e-10 -2.295338e-12 1.210327e+01" pbc="T T T"
O 1.165969e+00 -2.734842e-11 4.618210e-11 3.942864e-01 2.135160e-13 2.045512e-13
C 7.067865e-03 -2.705600e-11 4.654445e-11 -1.669352e+00 -2.317892e-13 1.095093e-13
O -1.169887e+00 -2.683880e-11 4.686213e-11 1.275148e+00 1.183555e-13 -2.159485e-13
3
Lattice="1.800000e+01 0.000000e+00 0.000000e+00 0.000000e+00 1.800000e+01 0.000000e+00 0.000000e+00 0.000000e+00 1.800000e+01" Properties=species:S:1:pos:R:3:force:R:3 energy=7.285355e-03 dipole="2.831278e-02 -1.464297e-14 5.722283e-15" pol="2.563804e+01 5.646788e-10 -4.386011e-10 5.646788e-10 1.197097e+01 5.783223e-13 -4.386011e-10 5.783223e-13 1.197097e+01" pbc="T T T"
O 1.155910e+00 -2.764062e-11 4.657109e-11 1.376595e+00 -3.377468e-13 -2.211160e-13
C 4.889007e-03 -2.747259e-11 4.683474e-11 -1.214914e+00 3.372655e-13 1.456838e-13
O -1.158260e+00 -2.727941e-11 4.707977e-11 -1.616102e-01 -1.414054e-13 1.455817e-13
3
Lattice="1.800000e+01 0.000000e+00 0.000000e+00 0.000000e+00 1.800000e+01 0.000000e+00 0.000000e+00 0.000000e+00 1.800000e+01" Properties=species:S:1:pos:R:3:force:R:3 energy=7.589672e-03 dipole="-4.428176e-02 -2.183618e-14 -3.525520e-14" pol="2.600274e+01 1.875489e-10 -4.743622e-10 1.875489e-10 1.207184e+01 -2.751940e-12 -4.743622e-10 -2.751940e-12 1.207184e+01" pbc="T T T"
O 1.168103e+00 -3.105001e-11 4.999554e-11 -1.047085e+00 -3.307567e-13 -5.068116e-13
C -6.734680e-03 -3.124962e-11 4.958019e-11 1.806830e+00 5.774114e-13 1.002278e-12
O -1.162418e+00 -3.140594e-11 4.921739e-11 -7.598449e-01 -2.626321e-13 -4.109696e-13
3
Lattice="1.800000e+01 0.000000e+00 0.000000e+00 0.000000e+00 1.800000e+01 0.000000e+00 0.000000e+00 0.000000e+00 1.800000e+01" Properties=species:S:1:pos:R:3:force:R:3 energy=7.503559e-03 dipole="4.298030e-02 3.799337e-14 8.869083e-15" pol="2.583516e+01 -3.132687e-10 4.587266e-10 -3.132687e-10 1.202623e+01 -2.108408e-12 4.587266e-10 -2.108408e-12 1.202623e+01" pbc="T T T"
O 1.159134e+00 -3.175317e-11 5.074831e-11 1.175617e+00 5.326164e-13 4.735419e-13
C 6.897133e-03 -3.202356e-11 5.023810e-11 -1.795330e+00 -8.795929e-13 -6.083612e-13
O -1.163847e+00 -3.236034e-11 4.973865e-11 6.198207e-01 3.679686e-13 1.371877e-13
3
Lattice="1.800000e+01 0.000000e+00 0.000000e+00 0.000000e+00 1.800000e+01 0.000000e+00 0.000000e+00 0.000000e+00 1.800000e+01" Properties=species:S:1:pos:R:3:force:R:3 energy=1.005322e-02 dipole="4.273121e-02 3.271538e-14 4.677710e-15" pol="2.618276e+01 1.563503e-10 9.571989e-11 1.563503e-10 1.212014e+01 1.364902e-13 9.571989e-11 1.364902e-13 1.212014e+01" pbc="T T T"
O 1.166834e+00 -3.310443e-11 5.217684e-11 2.617336e-01 1.535732e-13 -1.129334e-13
C 6.814129e-03 -3.347806e-11 5.148309e-11 -1.699803e+00 -8.598807e-13 -6.229207e-13
O -1.171779e+00 -3.389724e-11 5.082176e-11 1.438144e+00 6.823718e-13 5.960889e-13
3
Lattice="1.800000e+01 0.000000e+00 0.000000e+00 0.000000e+00 1.800000e+01 0.000000e+00 0.000000e+00 0.000000e+00 1.800000e+01" Properties=species:S:1:pos:R:3:force:R:3 energy=5.684867e-03 dipole="-1.949328e-02 4.230645e-14 -3.034952e-14" pol="2.623865e+01 1.193894e-10 1.626482e-10 1.193894e-10 1.213193e+01 1.527091e-13 1.626482e-10 1.527091e-13 1.213193e+01" pbc="T T T"
O 1.171758e+00 -3.499414e-11 5.386906e-11 -1.142502e+00 2.266657e-13 -8.746711e-13
C -3.159071e-03 -3.516519e-11 5.313568e-11 7.683663e-01 -5.878604e-13 7.595911e-13
O -1.169589e+00 -3.543085e-11 5.244107e-11 3.741035e-01 4.792452e-13 1.193422e-13
3
Lattice="1.800000e+01 0.000000e+00 0.000000e+00 0.000000e+00 1.800000e+01 0.000000e+00 0.000000e+00 0.000000e+00 1.800000e+01" Properties=species:S:1:pos:R:3:force:R:3 energy=6.437545e-03 dipole="-4.028230e-02 -2.469704e-15 6.208776e-16" pol="2.603869e+01 -3.124833e-10 1.396670e-11 -3.124833e-10 1.208091e+01 2.191345e-12 1.396670e-11 2.191345e-12 1.208091e+01" pbc="T T T"
O 1.171203e+00 1.093231e-14 3.653885e-15 -1.058730e+00 -1.193592e-14 7.666161e-14
C -3.611268e-03 4.694349e-15 -4.267928e-16 1.634906e+00 1.497298e-14 -1.086541e-14
O -1.160984e+00 -1.161325e-15 -3.691242e-15 -5.762657e-01 -3.082928e-14 -4.496213e-15
3
Lattice="1.800000e+01 0.000000e+00 0.000000e+00 0.000000e+00 1.800000e+01 0.000000e+00 0.000000e+00 0.000000e+00 1.800000e+01" Properties=species:S:1:pos:R:3:force:R:3 energy=3.358998e-03 dipole="3.200096e-02 7.715710e-16 2.445467e-15" pol="2.588339e+01 -2.993964e-10 1.396629e-10 -2.993964e-10 1.203786e+01 -4.742730e-12 1.396629e-10 -4.742730e-12 1.203786e+01" pbc="T T T"
O 1.163483e+00 1.852200e-14 4.472329e-16 7.977706e-01 1.569882e-14 -2.349159e-14
C 7.744866e-03 5.256073e-15 -4.632467e-15 -1.326834e+00 3.511833e-14 -5.179926e-14
O -1.161792e+00 -7.616604e-15 -1.395661e-14 5.291472e-01 -3.722171e-15 -4.908962e-14
3
Lattice="1.800000e+01 0.000000e+00 0.000000e+00 0.000000e+00 1.800000e+01 0.000000e+00 0.000000e+00 0.000000e+00 1.800000e+01" Properties=species:S:1:pos:R:3:force:R:3 energy=9.668756e-04 dipole="2.213421e-02 5.336214e-16 -5.928976e-15" pol="2.597741e+01 2.016385e-10 -1.056578e-10 2.016385e-10 1.206222e+01 3.033084e-12 -1.056578e-10 3.033084e-12 1.206222e+01" pbc="T T T"
O 1.166221e+00 8.393965e-14 4.402051e-14 3.361954e-01 1.189584e-13 4.982777e-14
C 6.207329e-03 1.994595e-14 9.117054e-15 -9.052829e-01 -6.062037e-14 -2.568843e-14
O -1.163375e+00 -4.706062e-14 -2.290842e-14 5.691442e-01 5.109400e-14 -2.710800e-14
3
Lattice="1.800000e+01 0.000000e+00 0.000000e+00 0.000000e+00 1.800000e+01 0.000000e+00 0.000000e+00 0.000000e+00 1.800000e+01" Properties=species:S:1:pos:R:3:force:R:3 energy=2.208595e-03 dipole="-2.642841e-03 5.481160e-16 1.743087e-15" pol="2.617679e+01 8.697123e-11 5.928655e-11 8.697123e-11 1.211465e+01 3.862190e-12 5.928655e-11 3.862190e-12 1.211465e+01" pbc="T T T"
O 1.172204e+00 1.684908e-13 9.504159e-14 -6.715336e-01 -1.884017e-14 -1.938210e-14
C 2.311746e-03 4.434414e-14 1.592917e-14 1.050322e-01 -2.098858e-14 -2.533895e-14
O -1.166432e+00 -8.499098e-14 -6.637521e-14 5.664962e-01 3.577985e-14 4.752356e-14
3
Lattice="1.800000e+01 0.000000e+00 0.000000e+00 0.000000e+00 1.800000e+01 0.000000e+00 0.000000e+00 0.000000e+00 1.800000e+01" Properties=species:S:1:pos:R:3:force:R:3 energy=6.318391e-03 dipole="-4.150514e-02 -1.771132e-14 -1.677607e-14" pol="2.594455e+01 1.275709e-10 -3.102532e-10 1.275709e-10 1.205566e+01 1.640231e-12 -3.102532e-10 1.640231e-12 1.205566e+01" pbc="T T T"
O 1.169144e+00 5.881098e-13 4.499162e-13 -8.572306e-01 -3.825489e-13 -3.469745e-13
C -3.787146e-03 1.935587e-13 5.742619e-14 1.707111e+00 6.523280e-13 6.008660e-13
O -1.158793e+00 -1.864958e-13 -3.253600e-13 -8.499806e-01 -3.115107e-13 -3.095335e-13
3
Lattice="1.800000e+01 0.000000e+00 0.000000e+00 0.000000e+00 1.800000e+01 0.000000e+00 0.000000e+00 0.000000e+00 1.800000e+01" Properties=species:S:1:pos:R:3:force:R:3 energy=2.428313e-03 dipole="2.339027e-02 7.760670e-15 1.278018e-14" pol="2.608432e+01 7.399333e-10 -3.115603e-11 7.399333e-10 1.209104e+01 2.230640e-12 -3.115603e-11 2.230640e-12 1.209104e+01" pbc="T T T"
O 1.168545e+00 6.666933e-13 5.241778e-13 9.088075e-02 5.326335e-15 5.705268e-14
C 6.415008e-03 2.622815e-13 8.675393e-14 -9.423990e-01 -2.288955e-13 -4.256418e-13
O -1.165855e+00 -1.413391e-13 -3.620604e-13 8.515710e-01 2.283906e-13 3.617336e-13
3
Lattice="1.800000e+01 0.000000e+00 0.000000e+00 0.000000e+00 1.800000e+01 0.000000e+00 0.000000e+00 0.000000e+00 1.800000e+01" Properties=species:S:1:pos:R:3:force:R:3 energy=2.108856e-04 dipole="2.856844e-03 1.202250e-14 5.863919e-15" pol="2.576472e+01 5.055418e-12 2.298919e-10 5.055418e-12 1.200405e+01 -3.720658e-12 2.298919e-10 -3.720658e-12 1.200405e+01" pbc="T T T"
O 1.162580e+00 7.078413e-13 5.834620e-13 4.757194e-01 1.044068e-13 2.014698e-13
C 3.175551e-03 3.431103e-13 1.106431e-13 -1.203347e-01 -1.029473e-13 -7.240497e-14
O -1.157456e+00 -3.613976e-14 -3.724483e-13 -3.553765e-01 -2.298477e-15 -1.033563e-13
3
Lattice="1.800000e+01 0.000000e+00 0.000000e+00 0.000000e+00 1.800000e+01 0.000000e+00 0.000000e+00 0.000000e+00 1.800000e+01" Properties=species:S:1:pos:R:3:force:R:3 energy=8.114192e-03 dipole="-3.522453e-02 2.351502e-15 -1.206712e-14" pol="2.620162e+01 2.250222e-10 1.830054e-10 2.250222e-10 1.212395e+01 4.402966e-12 1.830054e-10 4.402966e-12 1.212395e+01" pbc="T T T"
O 1.174594e+00 7.390489e-13 8.154452e-13 -1.346545e+00 -1.963306e-13 -6.768117e-13
C -2.840483e-03 5.824537e-13 2.368840e-13 1.396774e+00 1.599629e-13 7.166947e-13
O -1.164956e+00 4.173230e-13 -3.391332e-13 -5.029008e-02 6.258393e-14 -6.340792e-14
3
Lattice="1.800000e+01 0.000000e+00 0.000000e+00 0.000000e+00 1.800000e+01 0.000000e+00 0.000000e+00 0.000000e+00 1.800000e+01" Properties=species:S:1:pos:R:3:force:R:3 energy=6.130698e-03 dipole="-3.960404e-02 -4.900640e-15 -1.938801e-14" pol="2.603221e+01 7.308657e-10 2.152541e-10 7.308657e-10 1.207905e+01 8.915397e-14 2.152541e-10 8.915397e-14 1.207905e+01" pbc="T T T"
O 1.171020e+00 7.586577e-13 8.719673e-13 -1.030939e+00 -1.592043e-13 -5.226563e-13
C -3.503688e-03 6.278781e-13 2.657422e-13 1.608772e+00 2.284213e-13 8.301306e-13
O -1.160883e+00 5.015123e-13 -3.331558e-13 -5.779232e-01 -5.985887e-14 -2.624779e-13
3
Lattice="1.800000e+01 0.000000e+00 0.000000e+00 0.000000e+00 1.800000e+01 0.000000e+00 0.000000e+00 0.000000e+00 1.800000e+01" Properties=species:S:1:pos:R:3:force:R:3 energy=-1.940997e-04 dipole="-1.585759e-02 -1.182494e-14 -1.311107e-14" pol="2.590646e+01 3.585913e-11 3.281847e-10 3.585913e-11 1.204269e+01 1.275100e-12 3.281847e-10 1.275100e-12 1.204269e+01" pbc="T T T"
O 1.166876e+00 7.972693e-13 9.568356e-13 -2.708395e-01 -1.687559e-13 -3.053622e-13
C 2.417392e-04 6.910443e-13 3.122404e-13 6.549557e-01 2.432572e-13 4.297486e-13
O -1.159551e+00 6.078989e-13 -3.207845e-13 -3.841596e-01 -1.905218e-13 -1.548753e-13
3
Lattice="1.800000e+01 0.000000e+00 0.000000e+00 0.000000e+00 1.800000e+01 0.000000e+00 0.000000e+00 0.000000e+00 1.800000e+01" Properties=species:S:1:pos:R:3:force:R:3 energy=2.799252e-03 dipole="-2.775087e-02 -3.670101e-15 -1.720688e-14" pol="2.604460e+01 3.778951e-10 -1.271710e-09 3.778951e-10 1.208083e+01 2.850201e-12 -1.271710e-09 2.850201e-12 1.208083e+01" pbc="T T T"
O 1.170659e+00 8.745631e-13 1.091361e-12 -8.392148e-01 -1.203422e-13 -5.234062e-13
C -1.640146e-03 8.121962e-13 3.957912e-13 1.124573e+00 1.384696e-13 7.027737e-13
O -1.161921e+00 7.586512e-13 -2.923500e-13 -2.854234e-01 -1.058646e-13 -1.230954e-13
3
Lattice="1.800000e+01 0.000000e+00 0.000000e+00 0.000000e+00 1.800000e+01 0.000000e+00 0.000000e+00 0.000000e+00 1.800000e+01" Properties=species:S:1:pos:R:3:force:R:3 energy=3.359886e-03 dipole="-2.883308e-03 5.331762e-15 3.665235e-15" pol="2.564414e+01 1.279560e-10 7.245626e-11 1.279560e-10 1.197140e+01 4.144371e-12 7.245626e-11 4.144371e-12 1.197140e+01" pbc="T T T"
O 1.160171e+00 1.211078e-12 1.366844e-12 6.718468e-01 8.308149e-14 4.977206e-13
C 2.280032e-03 1.163997e-12 6.347760e-13 1.235301e-01 -8.133161e-14 3.833171e-14
O -1.154376e+00 1.105639e-12 -1.069991e-13 -7.953847e-01 2.674642e-14 -4.966029e-13
3
Lattice="1.800000e+01 0.000000e+00 0.000000e+00 0.000000e+00 1.800000e+01 0.000000e+00 0.000000e+00 0.000000e+00 1.800000e+01" Properties=species:S:1:pos:R:3:force:R:3 energy=1.972297e-03 dipole="2.640365e-02 1.718510e-14 2.314346e-14" pol="2.599273e+01 4.225963e-10 7.952650e-10 4.225963e-10 1.206674e+01 1.149483e-12 7.952650e-10 1.149483e-12 1.206674e+01" pbc="T T T"
O 1.166298e+00 1.377842e-12 1.435925e-12 3.892072e-01 1.590090e-13 1.912117e-13
C 6.879948e-03 1.307568e-12 7.314720e-13 -1.077758e+00 -3.249763e-13 -7.946953e-13
O -1.163957e+00 1.202250e-12 6.252717e-15 6.886167e-01 1.784629e-13 4.927223e-13
3
Lattice="1.800000e+01 0.000000e+00 0.000000e+00 0.000000e+00 1.800000e+01 0.000000e+00 0.000000e+00 0.000000e+00 1.800000e+01" Properties=species:S:1:pos:R:3:force:R:3 energy=1.263933e-02 dipole="4.477160e-02 -9.153165e-15 2.304266e-14" pol="2.624413e+01 -2.755250e-10 -4.804487e-10 -2.755250e-10 1.213703e+01 4.093723e-12 -4.804487e-10 4.093723e-12 1.213703e+01" pbc="T T T"
O 1.170731e+00 1.490387e-12 1.471637e-12 1.521526e-01 -1.467013e-13 8.605966e-14
C 9.815473e-03 1.361452e-12 7.788604e-13 -1.765932e+00 6.323620e-14 -1.019712e-12
O -1.170593e+00 1.260649e-12 8.062061e-14 1.613846e+00 2.320763e-14 8.977906e-13
3
Lattice="1.800000e+01 0.000000e+00 0.000000e+00 0.000000e+00 1.800000e+01 0.000000e+00 0.000000e+00 0.000000e+00 1.800000e+01" Properties=species:S:1:pos:R:3:force:R:3 energy=3.875910e-03 dipole="3.157320e-02 -6.283758e-15 1.544698e-14" pol="2.605171e+01 4.348589e-10 -2.720556e-10 4.348589e-10 1.208319e+01 -3.784605e-13 -2.720556e-10 -3.784605e-13 1.208319e+01" pbc="T T T"
O 1.167295e+00 1.690238e-12 1.515732e-12 3.503873e-01 -2.290008e-14 1.701609e-13
C 7.700181e-03 1.498688e-12 8.801361e-13 -1.278431e+00 -2.108631e-14 -6.164788e-13
O -1.165570e+00 1.328159e-12 2.398760e-13 9.281160e-01 6.286004e-14 5.499551e-13
3
Lattice="1.800000e+01 0.000000e+00 0.000000e+00 0.000000e+00 1.800000e+01 0.000000e+00 0.000000e+00 0.000000e+00 1.800000e+01" Properties=species:S:1:pos:R:3:force:R:3 energy=4.037161e-03 dipole="-3.468097e-02 1.074068e-14 -1.077839e-14" pol="2.591220e+01 5.845694e-10 3.882552e-10 5.845694e-10 1.204597e+01 -3.174902e-13 3.882552e-10 -3.174902e-13 1.204597e+01" pbc="T T T"
O 1.168047e+00 1.953770e-12 1.575389e-12 -6.507887e-01 -5.056516e-15 -2.229339e-13
C -2.711215e-03 1.692327e-12 1.010306e-12 1.432342e+00 9.935439e-14 6.365183e-13
O -1.158504e+00 1.396508e-12 4.394141e-13 -7.816413e-01 -1.175536e-13 -2.447103e-13
3
Lattice="1.800000e+01 0.000000e+00 0.000000e+00 0.000000e+00 1.800000e+01 0.000000e+00 0.000000e+00 0.000000e+00 1.800000e+01" Properties=species:S:1:pos:R:3:force:R:3 energy=9.135928e-03 dipole="-4.445570e-02 -7.335003e-15 -1.277794e-14" pol="2.576983e+01 -5.646445e-11 4.962693e-10 -5.646445e-11 1.200869e+01 -3.569598e-12 4.962693e-10 -3.569598e-12 1.200869e+01" pbc="T T T"
O 1.165341e+00 2.408759e-12 1.755633e-12 -4.871112e-01 -7.464374e-14 -1.597968e-13
C -4.217631e-03 2.015730e-12 1.278972e-12 1.874252e+00 5.592127e-13 7.215128e-13
O -1.154667e+00 1.611859e-12 8.072368e-13 -1.387250e+00 -3.979123e-13 -6.143870e-13
3
Lattice="1.800000e+01 0.000000e+00 0.000000e+00 0.000000e+00 1.800000e+01 0.000000e+00 0.000000e+00 0.000000e+00 1.800000e+01" Properties=species:S:1:pos:R:3:force:R:3 energy=7.151774e-03 dipole="-2.947228e-02 1.143109e-14 -5.696732e-15" pol="2.622124e+01 2.723685e-11 -7.628226e-10 2.723685e-11 1.212838e+01 -4.995326e-13 -7.628226e-10 -4.995326e-13 1.212838e+01" pbc="T T T"
O 1.174722e+00 2.543352e-12 1.826203e-12 -1.287024e+00 -3.062140e-13 -4.684843e-13
C -1.933655e-03 2.144598e-12 1.389036e-12 1.165072e+00 9.635124e-14 3.217188e-13
O -1.165765e+00 1.705862e-12 9.425507e-13 1.219023e-01 2.221377e-13 1.258962e-13
3
Lattice="1.800000e+01 0.000000e+00 0.000000e+00 0.000000e+00 1.800000e+01 0.000000e+00 0.000000e+00 0.000000e+00 1.800000e+01" Properties=species:S:1:pos:R:3:force:R:3 energy=7.506982e-03 dipole="-4.237846e-02 -4.675282e-15 -1.318955e-14" pol="2.581713e+01 7.433533e-10 6.244783e-10 7.433533e-10 1.202125e+01 2.740006e-13 6.244783e-10 2.740006e-13 1.202125e+01" pbc="T T T"
O 1.166305e+00 2.738710e-12 1.906089e-12 -5.642662e-01 -2.149274e-13 -7.254873e-14
C -3.901437e-03 2.327597e-12 1.543389e-12 1.774608e+00 4.947423e-13 5.252542e-13
O -1.155868e+00 1.897822e-12 1.182604e-12 -1.210448e+00 -3.859591e-13 -3.313965e-13
3
Lattice="1.800000e+01 0.000000e+00 0.000000e+00 0.000000e+00 1.800000e+01 0.000000e+00 0.000000e+00 0.000000e+00 1.800000e+01" Properties=species:S:1:pos:R:3:force:R:3 energy=7.941326e-03 dipole="-3.126713e-02 -6.386693e-15 -1.342191e-14" pol="2.564293e+01 -4.936059e-10 1.994680e-10 -4.936059e-10 1.197257e+01 4.579899e-12 1.994680e-10 4.579899e-12 1.197257e+01" pbc="T T T"
O 1.161742e+00 2.909892e-12 1.962824e-12 8.979293e-02 8.659131e-14 5.685397e-14
C -2.140812e-03 2.503060e-12 1.691956e-12 1.340936e+00 4.291946e-13 3.464122e-13
O -1.152629e+00 2.093350e-12 1.427594e-12 -1.430807e+00 -4.477495e-13 -3.618713e-13
3
Lattice="1.800000e+01 0.000000e+00 0.000000e+00 0.000000e+00 1.800000e+01 0.000000e+00 0.000000e+00 0.000000e+00 1.800000e+01" Properties=species:S:1:pos:R:3:force:R:3 energy=3.335192e-03 dipole="3.238911e-02 2.339788e-14 4.355605e-15" pol="2.594855e+01 -1.291606e-10 2.560849e-10 -1.291606e-10 1.205550e+01 1.942923e-12 2.560849e-10 1.942923e-12 1.205550e+01" pbc="T T T"
O 1.164926e+00 3.393936e-12 2.300466e-12 6.351743e-01 2.633991e-13 2.519644e-15
C 7.814625e-03 3.241735e-12 2.314692e-12 -1.330701e+00 -4.889395e-13 -4.669124e-15
O -1.163287e+00 3.047403e-12 2.321408e-12 6.956088e-01 2.553071e-13 3.398818e-14
3
Lattice="1.800000e+01 0.000000e+00 0.000000e+00 0.000000e+00 1.800000e+01 0.000000e+00 0.000000e+00 0.000000e+00 1.800000e+01" Properties=species:S:1:pos:R:3:force:R:3 energy=7.985756e-03 dipole="-4.391118e-02 -1.226000e-14 -3.460702e-15" pol="2.582606e+01 -4.350826e-10 5.582528e-10 -4.350826e-10 1.202390e+01 -7.632242e-13 5.582528e-10 -7.632242e-13 1.202390e+01" pbc="T T T"
O 1.166589e+00 3.571154e-12 2.442335e-12 -6.151049e-01 -7.610703e-14 2.930704e-15
C -4.142863e-03 3.469070e-12 2.502455e-12 1.836673e+00 2.614850e-13 4.689617e-14
O -1.155971e+00 3.382995e-12 2.576197e-12 -1.221677e+00 -1.756213e-13 8.224413e-14
3
Lattice="1.800000e+01 0.000000e+00 0.000000e+00 0.000000e+00 1.800000e+01 0.000000e+00 0.000000e+00 0.000000e+00 1.800000e+01" Properties=species:S:1:pos:R:3:force:R:3 energy=3.714685e-03 dipole="5.990024e-03 6.390710e-15 -5.293176e-15" pol="2.563747e+01 -4.466329e-10 -4.606792e-10 -4.466329e-10 1.196963e+01 1.365602e-12 -4.606792e-10 1.365602e-12 1.196963e+01" pbc="T T T"
O 1.159499e+00 4.067116e-12 2.639496e-12 8.805357e-01 -4.519910e-14 -3.118945e-13
C 3.661606e-03 4.098875e-12 2.932905e-12 -2.569017e-01 -1.787694e-13 1.449117e-13
O -1.154741e+00 4.110855e-12 3.238404e-12 -6.236179e-01 1.326940e-13 1.374796e-13
3
Lattice="1.800000e+01 0.000000e+00 0.000000e+00 0.000000e+00 1.800000e+01 0.000000e+00 0.000000e+00 0.000000e+00 1.800000e+01" Properties=species:S:1:pos:R:3:force:R:3 energy=1.101845e-02 dipole="4.281959e-02 6.670542e-15 -2.282935e-14" pol="2.567100e+01 -5.128954e-12 -4.692795e-10 -5.128954e-12 1.198154e+01 3.581901e-12 -4.692795e-10 3.581901e-12 1.198154e+01" pbc="T T T"
O 1.157995e+00 4.392210e-12 2.789246e-12 1.621511e+00 -1.687798e-13 -6.280192e-13
C 9.402335e-03 4.532230e-12 3.214037e-12 -1.830296e+00 2.611571e-14 7.503227e-13
O -1.157547e+00 4.652345e-12 3.660387e-12 2.088866e-01 7.251660e-14 -4.577935e-14
3
Lattice="1.800000e+01 0.000000e+00 0.000000e+00 0.000000e+00 1.800000e+01 0.000000e+00 0.000000e+00 0.000000e+00 1.800000e+01" Properties=species:S:1:pos:R:3:force:R:3 energy=5.206028e-03 dipole="3.488150e-02 -1.807158e-14 -7.274451e-15" pol="2.579495e+01 -9.401534e-11 1.534932e-10 -9.401534e-11 1.201425e+01 -1.128381e-12 1.534932e-10 -1.128381e-12 1.201425e+01" pbc="T T T"
O 1.161304e+00 4.469035e-12 2.838291e-12 1.098714e+00 -2.460835e-13 -3.852942e-13
C 8.183147e-03 4.632057e-12 3.301596e-12 -1.464582e+00 3.193107e-13 4.730561e-13
O -1.159942e+00 4.815853e-12 3.755606e-12 3.659600e-01 -8.581453e-14 -1.375218e-13
3
Lattice="1.800000e+01 0.000000e+00 0.000000e+00 0.000000e+00 1.800000e+01 0.000000e+00 0.000000e+00 0.000000e+00 1.800000e+01" Properties=species:S:1:pos:R:3:force:R:3 energy=1.278086e-02 dipole="-4.499203e-02 1.754509e-14 3.206767e-14" pol="2.624590e+01 1.208042e-09 3.652437e-10 1.208042e-09 1.213755e+01 4.400686e-13 3.652437e-10 4.400686e-13 1.213755e+01" pbc="T T T"
O 1.176102e+00 4.704864e-12 3.036051e-12 -1.621732e+00 5.336026e-13 9.377444e-13
C -4.392858e-03 5.078910e-12 3.597649e-12 1.774213e+00 -5.426055e-13 -1.011448e-12
O -1.165298e+00 5.446006e-12 4.127148e-12 -1.525482e-01 2.898760e-14 1.931276e-13
3
Lattice="1.800000e+01 0.000000e+00 0.000000e+00 0.000000e+00 1.800000e+01 0.000000e+00 0.000000e+00 0.000000e+00 1.800000e+01" Properties=species:S:1:pos:R:3:force:R:3 energy=7.759823e-03 dipole="4.507382e-02 -1.297134e-14 -1.870264e-14" pol="2.597685e+01 5.855874e-11 -1.186267e-10 5.855874e-11 1.206497e+01 -6.675061e-13 -1.186267e-10 -6.675061e-13 1.206497e+01" pbc="T T T"
O 1.164743e+00 4.976008e-12 3.191130e-12 8.458248e-01 -2.186865e-13 -3.862451e-13
C 9.811330e-03 5.480985e-12 3.818684e-12 -1.845954e+00 6.554046e-13 8.821901e-13
O -1.164603e+00 5.981873e-12 4.444460e-12 1.000233e+00 -3.316734e-13 -5.130559e-13
3
Lattice="1.800000e+01 0.000000e+00 0.000000e+00 0.000000e+00 1.800000e+01 0.000000e+00 0.000000e+00 0.000000e+00 1.800000e+01" Properties=species:S:1:pos:R:3:force:R:3 energy=3.809649e-03 dipole="3.181412e-02 -6.293589e-15 -3.365670e-14" pol="2.604122e+01 4.461398e-10 5.536703e-10 4.461398e-10 1.208040e+01 -1.966446e-12 5.536703e-10 -1.966446e-12 1.208040e+01" pbc="T T T"
O 1.167044e+00 5.223836e-12 3.357865e-12 3.825258e-01 -1.150851e-13 -3.198672e-13
C 7.736692e-03 5.896550e-12 4.013577e-12 -1.290104e+00 5.696196e-13 9.827722e-13
O -1.165347e+00 6.556863e-12 4.712129e-12 9.076523e-01 -4.642409e-13 -6.370770e-13
3
Lattice="1.800000e+01 0.000000e+00 0.000000e+00 0.000000e+00 1.800000e+01 0.000000e+00 0.000000e+00 0.000000e+00 1.800000e+01" Properties=species:S:1:pos:R:3:force:R:3 energy=7.829178e-03 dipole="-3.434080e-02 1.598192e-14 3.209621e-14" pol="2.620072e+01 9.095918e-10 4.108879e-10 9.095918e-10 1.212357e+01 -1.669781e-13 4.108879e-10 -1.669781e-13 1.212357e+01" pbc="T T T"
O 1.174527e+00 5.296414e-12 3.395681e-12 -1.328430e+00 7.705627e-13 9.349743e-13
C -2.700221e-03 6.004686e-12 4.094681e-12 1.361832e+00 -7.617224e-13 -1.011356e-12
O -1.164993e+00 6.714131e-12 4.758502e-12 -3.346112e-02 4.307555e-14 2.560730e-13
3
Lattice="1.800000e+01 0.000000e+00 0.000000e+00 0.000000e+00 1.800000e+01 0.000000e+00 0.000000e+00 0.000000e+00 1.800000e+01" Properties=species:S:1:pos:R:3:force:R:3 energy=1.278174e-02 dipole="-4.534993e-02 1.745673e-14 3.423654e-14" pol="2.564921e+01 1.529217e-10 -6.645666e-10 1.529217e-10 1.197594e+01 2.141104e-12 -6.645666e-10 2.141104e-12 1.197594e+01" pbc="T T T"
O 1.162642e+00 5.517928e-12 3.560625e-12 -2.028349e-01 8.303989e-14 1.633642e-13
C -4.334850e-03 6.294504e-12 4.222259e-12 1.944702e+00 -1.136844e-12 -1.192798e-12
O -1.151882e+00 7.084740e-12 4.860120e-12 -1.741971e+00 1.141531e-12 9.939969e-13
3
Lattice="1.800000e+01 0.000000e+00 0.000000e+00 0.000000e+00 1.800000e+01 0.000000e+00 0.000000e+00 0.000000e+00 1.800000e+01" Properties=species:S:1:pos:R:3:force:R:3 energy=2.089190e-03 dipole="-2.682935e-02 2.110423e-15 3.550520e-14" pol="2.586853e+01 6.256475e-10 3.804455e-10 6.256475e-10 1.203330e+01 2.965227e-12 3.804455e-10 2.965227e-12 1.203330e+01" pbc="T T T"
O 1.166630e+00 5.681101e-12 3.667312e-12 -3.924395e-01 1.800864e-13 3.312990e-13
C -1.474679e-03 6.474508e-12 4.302025e-12 1.114469e+00 -5.605276e-13 -8.160868e-13
O -1.158015e+00 7.292149e-12 4.900680e-12 -7.221021e-01 3.166637e-13 4.343765e-13
3
Lattice="1.800000e+01 0.000000e+00 0.000000e+00 0.000000e+00 1.800000e+01 0.000000e+00 0.000000e+00 0.000000e+00 1.800000e+01" Properties=species:S:1:pos:R:3:force:R:3 energy=2.973719e-03 dipole="1.141133e-02 -3.468540e-15 -2.721974e-14" pol="2.618549e+01 2.795166e-10 3.628545e-10 2.795166e-10 1.211721e+01 -1.076365e-12 3.628545e-10 -1.076365e-12 1.211721e+01" pbc="T T T"
O 1.171555e+00 5.790791e-12 3.748639e-12 -4.104238e-01 4.633977e-13 1.277372e-14
C 4.532066e-03 6.604345e-12 4.322917e-12 -4.530815e-01 1.727689e-13 5.169798e-13
O -1.167452e+00 7.407985e-12 4.935156e-12 8.635271e-01 -5.549913e-13 -5.669407e-13
3
Lattice="1.800000e+01 0.000000e+00 0.000000e+00 0.000000e+00 1.800000e+01 0.000000e+00 0.000000e+00 0.000000e+00 1.800000e+01" Properties=species:S:1:pos:R:3:force:R:3 energy=-1.177089e-03 dipole="-5.725000e-03 1.714708e-14 -1.895941e-14" pol="2.594306e+01 5.656769e-10 1.193272e-10 5.656769e-10 1.205214e+01 -5.486134e-14 1.193272e-10 -5.486134e-14 1.205214e+01" pbc="T T T"
O 1.167123e+00 5.950561e-12 3.838459e-12 -1.589658e-01 2.257355e-13 -9.622891e-14
C 1.830165e-03 6.753044e-12 4.371230e-12 2.351880e-01 -4.267382e-13 1.649678e-13
O -1.160990e+00 7.523759e-12 4.945582e-12 -7.623770e-02 1.344685e-13 -1.489841e-13
3
Lattice="1.800000e+01 0.000000e+00 0.000000e+00 0.000000e+00 1.800000e+01 0.000000e+00 0.000000e+00 0.000000e+00 1.800000e+01" Properties=species:S:1:pos:R:3:force:R:3 energy=7.893947e-03 dipole="-4.556230e-02 3.198173e-14 -1.907115e-14" pol="2.595347e+01 7.090425e-10 6.825859e-10 7.090425e-10 1.205872e+01 -1.716894e-13 6.825859e-10 -1.716894e-13 1.205872e+01" pbc="T T T"
O 1.169559e+00 7.469203e-12 4.502031e-12 -9.535684e-01 3.998762e-13 -1.487800e-13
C -4.425702e-03 7.812765e-12 4.571538e-12 1.872162e+00 -7.693696e-13 1.740088e-13
O -1.158729e+00 8.113927e-12 4.687092e-12 -9.187006e-01 3.711020e-13 -1.179838e-13
3
Lattice="1.800000e+01 0.000000e+00 0.000000e+00 0.000000e+00 1.800000e+01 0.000000e+00 0.000000e+00 0.000000e+00 1.800000e+01" Properties=species:S:1:pos:R:3:force:R:3 energy=1.135518e-02 dipole="-4.095190e-02 1.062579e-14 2.284089e-15" pol="2.563910e+01 3.280483e-10 4.410275e-10 3.280483e-10 1.197260e+01 2.447922e-12 4.410275e-10 2.447922e-12 1.197260e+01" pbc="T T T"
O 1.162178e+00 7.672402e-12 4.556382e-12 -9.171249e-02 2.843059e-14 -6.291209e-14
C -3.648205e-03 7.910432e-12 4.603225e-12 1.758118e+00 -3.750980e-13 -4.185469e-14
O -1.151933e+00 8.144027e-12 4.649569e-12 -1.666502e+00 3.600976e-13 5.239119e-14
3
Lattice="1.800000e+01 0.000000e+00 0.000000e+00 0.000000e+00 1.800000e+01 0.000000e+00 0.000000e+00 0.000000e+00 1.800000e+01" Properties=species:S:1:pos:R:3:force:R:3 energy=-1.628457e-05 dipole="1.032581e-02 -1.100969e-14 1.045218e-14" pol="2.580583e+01 -1.897259e-10 -2.680464e-10 -1.897259e-10 1.201531e+01 -3.126883e-12 -2.680464e-10 -3.126883e-12 1.201531e+01" pbc="T T T"
O 1.163067e+00 8.018044e-12 4.638317e-12 5.274145e-01 -1.244099e-13 1.291346e-13
C 4.344317e-03 8.106702e-12 4.629666e-12 -4.325146e-01 1.712317e-13 -2.257499e-13
O -1.158822e+00 8.222161e-12 4.597057e-12 -9.487052e-02 -1.371301e-13 1.283642e-13
3
Lattice="1.800000e+01 0.000000e+00 0.000000e+00 0.000000e+00 1.800000e+01 0.000000e+00 0.000000e+00 0.000000e+00 1.800000e+01" Properties=species:S:1:pos:R:3:force:R:3 energy=2.992716e-03 dipole="1.678621e-02 -1.791260e-14 2.008475e-14" pol="2.616275e+01 -1.705482e-10 4.672883e-10 -1.705482e-10 1.211147e+01 2.774584e-12 4.672883e-10 2.774584e-12 1.211147e+01" pbc="T T T"
O 1.170715e+00 8.557194e-12 4.888020e-12 -2.438735e-01 -9.905721e-14 1.104122e-13
C 5.379862e-03 8.487831e-12 4.687737e-12 -6.687267e-01 2.113489e-13 -4.031260e-13
O -1.167248e+00 8.452492e-12 4.447840e-12 9.126336e-01 -9.550003e-14 3.130290e-13
3
Lattice="1.800000e+01 0.000000e+00 0.000000e+00 0.000000e+00 1.800000e+01 0.000000e+00 0.000000e+00 0.000000e+00 1.800000e+01" Properties=species:S:1:pos:R:3:force:R:3 energy=7.949170e-03 dipole="4.553003e-02 4.782754e-15 2.051036e-14" pol="2.590550e+01 -2.605873e-10 9.442653e-11 -2.605873e-10 1.204571e+01 -2.676729e-13 9.442653e-11 -2.676729e-13 1.204571e+01" pbc="T T T"
O 1.163111e+00 8.931551e-12 5.124943e-12 1.045489e+00 2.195384e-13 3.678104e-13
C 9.869211e-03 8.747488e-12 4.736395e-12 -1.883476e+00 -2.445072e-13 -7.280783e-13
O -1.163015e+00 8.563928e-12 4.329769e-12 8.380963e-01 1.338774e-13 3.411810e-13
3
Lattice="1.800000e+01 0.000000e+00 0.000000e+00 0.000000e+00 1.800000e+01 0.000000e+00 0.000000e+00 0.000000e+00 1.800000e+01" Properties=species:S:1:pos:R:3:force:R:3 energy=4.152766e-03 dipole="-2.854357e-03 1.128411e-14 -1.861650e-14" pol="2.623912e+01 2.771806e-10 -5.168758e-10 2.771806e-10 1.213125e+01 -9.927886e-13 -5.168758e-10 -9.927886e-13 1.213125e+01" pbc="T T T"
O 1.173613e+00 9.069993e-12 5.203067e-12 -8.249082e-01 4.208690e-14 -4.901031e-13
C 2.277227e-03 8.846592e-12 4.740206e-12 1.124464e-01 -2.262792e-13 2.998265e-13
O -1.167816e+00 8.589667e-12 4.312369e-12 7.124570e-01 2.170421e-13 8.941187e-14
3
Lattice="1.800000e+01 0.000000e+00 0.000000e+00 0.000000e+00 1.800000e+01 0.000000e+00 0.000000e+00 0.000000e+00 1.800000e+01" Properties=species:S:1:pos:R:3:force:R:3 energy=7.814424e-03 dipole="-4.502282e-02 -3.159073e-14 -9.959083e-15" pol="2.599229e+01 -1.019809e-09 2.092745e-10 -1.019809e-09 1.206914e+01 6.366286e-13 2.092745e-10 6.366286e-13 1.206914e+01" pbc="T T T"
O 1.170407e+00 9.633410e-12 5.456487e-12 -1.035924e+00 -4.909303e-13 -3.704432e-13
C -4.348418e-03 9.208094e-12 4.882138e-12 1.839863e+00 8.803454e-13 6.784593e-13
O -1.159635e+00 8.817041e-12 4.282122e-12 -8.040412e-01 -4.212744e-13 -2.780790e-13
3
Lattice="1.800000e+01 0.000000e+00 0.000000e+00 0.000000e+00 1.800000e+01 0.000000e+00 0.000000e+00 0.000000e+00 1.800000e+01" Properties=species:S:1:pos:R:3:force:R:3 energy=1.166935e-02 dipole="-4.502666e-02 -9.381244e-15 -3.509872e-14" pol="2.621004e+01 -1.548885e-10 9.597600e-10 -1.548885e-10 1.212791e+01 1.072371e-12 9.597600e-10 1.072371e-12 1.212791e+01" pbc="T T T"
O 1.175301e+00 9.893156e-12 5.633134e-12 -1.541130e+00 -5.475614e-13 -1.063055e-12
C -4.391356e-03 9.449555e-12 4.947576e-12 1.784562e+00 5.721794e-13 1.194932e-12
O -1.164498e+00 8.996368e-12 4.293695e-12 -2.435053e-01 -6.360744e-14 -2.602126e-13
3
Lattice="1.800000e+01 0.000000e+00 0.000000e+00 0.000000e+00 1.800000e+01 0.000000e+00 0.000000e+00 0.000000e+00 1.800000e+01" Properties=species:S:1:pos:R:3:force:R:3 energy=2.697706e-03 dipole="2.949505e-02 3.322551e-15 2.045244e-14" pol="2.598759e+01 -1.130882e-10 6.524265e-12 -1.130882e-10 1.206569e+01 -1.620254e-12 6.524265e-12 -1.620254e-12 1.206569e+01" pbc="T T T"
O 1.165987e+00 1.114826e-11 6.223460e-12 4.699349e-01 7.211521e-14 2.052064e-13
C 7.364974e-03 1.110105e-11 5.725103e-12 -1.204987e+00 -7.547493e-14 -5.832622e-13
O -1.164011e+00 1.104858e-11 5.208029e-12 7.351249e-01 2.189495e-14 3.519604e-13
3
Lattice="1.800000e+01 0.000000e+00 0.000000e+00 0.000000e+00 1.800000e+01 0.000000e+00 0.000000e+00 0.000000e+00 1.800000e+01" Properties=species:S:1:pos:R:3:force:R:3 energy=7.418056e-03 dipole="3.219387e-02 1.258442e-14 9.994821e-15" pol="2.620709e+01 5.834044e-10 1.743235e-10 5.834044e-10 1.212497e+01 -9.711783e-13 1.743235e-10 -9.711783e-13 1.212497e+01" pbc="T T T"
O 1.170732e+00 1.129645e-11 6.274901e-12 -2.863564e-02 1.170629e-13 1.290324e-15
C 7.819988e-03 1.129842e-11 5.810695e-12 -1.275387e+00 -2.549897e-13 -4.789611e-13
O -1.169095e+00 1.126784e-11 5.346074e-12 1.304079e+00 1.404909e-13 4.356646e-13
3
Lattice="1.800000e+01 0.000000e+00 0.000000e+00 0.000000e+00 1.800000e+01 0.000000e+00 0.000000e+00 0.000000e+00 1.800000e+01" Properties=species:S:1:pos:R:3:force:R:3 energy=1.950440e-03 dipole="-2.117016e-03 -1.323940e-15 1.012967e-14" pol="2.568953e+01 2.283592e-10 3.870994e-11 2.283592e-10 1.198370e+01 2.364659e-12 3.870994e-11 2.364659e-12 1.198370e+01" pbc="T T T"
O 1.161161e+00 1.152908e-11 6.317199e-12 5.678940e-01 -7.786914e-14 2.652327e-13
C 2.398520e-03 1.155980e-11 5.948995e-12 9.011238e-02 1.722143e-14 -1.095147e-13
O -1.155456e+00 1.159425e-11 5.562970e-12 -6.580123e-01 -1.227471e-14 -1.441261e-13
3
Lattice="1.800000e+01 0.000000e+00 0.000000e+00 0.000000e+00 1.800000e+01 0.000000e+00 0.000000e+00 0.000000e+00 1.800000e+01" Properties=species:S:1:pos:R:3:force:R:3 energy=9.429882e-03 dipole="4.376195e-02 -1.627175e-14 -1.026673e-15" pol="2.574301e+01 1.017587e-09 1.000405e-09 1.017587e-09 1.200129e+01 1.208630e-12 1.000405e-09 1.208630e-12 1.200129e+01" pbc="T T T"
O 1.159564e+00 1.237807e-11 6.827924e-12 1.444579e+00 -6.540200e-13 -2.725906e-14
C 9.562340e-03 1.297349e-11 6.830529e-12 -1.851877e+00 7.732598e-13 5.120052e-14
O -1.159237e+00 1.356121e-11 6.836722e-12 4.074057e-01 -1.952815e-13 -1.892716e-14
3
Lattice="1.800000e+01 0.000000e+00 0.000000e+00 0.000000e+00 1.800000e+01 0.000000e+00 0.000000e+00 0.000000e+00 1.800000e+01" Properties=species:S:1:pos:R:3:force:R:3 energy=9.078163e-03 dipole="4.513607e-02 -2.143865e-14 -1.508297e-14" pol="2.578771e+01 -4.813938e-10 -6.948354e-11 -4.813938e-10 1.201366e+01 -2.166746e-12 -6.948354e-11 -2.166746e-12 1.201366e+01" pbc="T T T"
O 1.160485e+00 1.256076e-11 7.069808e-12 1.354276e+00 -8.033368e-13 -1.058357e-13
C 9.785184e-03 1.333136e-11 7.093093e-12 -1.898255e+00 1.044098e-12 1.384946e-13
O -1.160325e+00 1.409000e-11 7.133167e-12 5.440900e-01 -2.432689e-13 -5.851577e-14
3
Lattice="1.800000e+01 0.000000e+00 0.000000e+00 0.000000e+00 1.800000e+01 0.000000e+00 0.000000e+00 0.000000e+00 1.800000e+01" Properties=species:S:1:pos:R:3:force:R:3 energy=1.293983e-02 dipole="4.527810e-02 -3.781327e-14 1.599368e-15" pol="2.564379e+01 -1.015083e-09 2.288991e-10 -1.015083e-09 1.197445e+01 1.324014e-12 2.288991e-10 1.324014e-12 1.197445e+01" pbc="T T T"
O 1.157221e+00 1.262865e-11 7.127819e-12 1.755449e+00 -1.236080e-12 -6.031434e-14
C 9.780467e-03 1.341854e-11 7.174981e-12 -1.943090e+00 1.431274e-12 -4.994890e-15
O -1.157057e+00 1.423279e-11 7.217183e-12 1.877439e-01 -2.604573e-13 -8.461333e-15
3
Lattice="1.800000e+01 0.000000e+00 0.000000e+00 0.000000e+00 1.800000e+01 0.000000e+00 0.000000e+00 0.000000e+00 1.800000e+01" Properties=species:S:1:pos:R:3:force:R:3 energy=9.710137e-03 dipole="3.642947e-02 -3.294596e-14 -1.042541e-15" pol="2.563919e+01 6.677961e-11 1.172559e-09 6.677961e-11 1.197209e+01 1.809513e-12 1.172559e-09 1.809513e-12 1.197209e+01" pbc="T T T"
O 1.157678e+00 1.290171e-11 7.306526e-12 1.560548e+00 -1.177755e-12 -2.419761e-13
C 8.401847e-03 1.376955e-11 7.432887e-12 -1.563550e+00 1.262118e-12 1.346711e-13
O -1.156479e+00 1.465917e-11 7.556875e-12 3.090235e-03 -1.079827e-13 1.254623e-13
3
Lattice="1.800000e+01 0.000000e+00 0.000000e+00 0.000000e+00 1.800000e+01 0.000000e+00 0.000000e+00 0.000000e+00 1.800000e+01" Properties=species:S:1:pos:R:3:force:R:3 energy=6.814570e-03 dipole="-2.633438e-02 1.650480e-14 6.113779e-15" pol="2.563700e+01 -3.222824e-10 -4.075504e-10 -3.222824e-10 1.197051e+01 -5.736593e-13 -4.075504e-10 -5.736593e-13 1.197051e+01" pbc="T T T"
O 1.161336e+00 1.307903e-11 7.367763e-12 2.041884e-01 -2.079964e-13 -3.631162e-14
C -1.371867e-03 1.395599e-11 7.562293e-12 1.130096e+00 -8.130542e-13 -2.824822e-13
O -1.152800e+00 1.483502e-11 7.750364e-12 -1.334351e+00 9.866879e-13 2.665715e-13
3
Lattice="1.800000e+01 0.000000e+00 0.000000e+00 0.000000e+00 1.800000e+01 0.000000e+00 0.000000e+00 0.000000e+00 1.800000e+01" Properties=species:S:1:pos:R:3:force:R:3 energy=7.813064e-03 dipole="-4.496753e-02 5.188370e-14 3.388805e-16" pol="2.599577e+01 -1.547790e-10 1.413367e-10 -1.547790e-10 1.207007e+01 -6.967834e-13 1.413367e-10 -6.967834e-13 1.207007e+01" pbc="T T T"
O 1.170482e+00 1.336812e-11 7.422633e-12 -1.043131e+00 8.919892e-13 1.034187e-13
C -4.340396e-03 1.423177e-11 7.710114e-12 1.836700e+00 -1.635963e-12 -2.818059e-13
O -1.159716e+00 1.503996e-11 8.019070e-12 -7.936713e-01 6.266016e-13 1.166645e-13
3
Lattice="1.800000e+01 0.000000e+00 0.000000e+00 0.000000e+00 1.800000e+01 0.000000e+00 0.000000e+00 0.000000e+00 1.800000e+01" Properties=species:S:1:pos:R:3:force:R:3 energy=2.244846e-03 dipole="2.529863e-02 -1.844292e-14 -2.467052e-15" pol="2.581781e+01 -7.110462e-10 1.444400e-10 -7.110462e-10 1.201946e+01 3.412658e-13 1.444400e-10 3.412658e-13 1.201946e+01" pbc="T T T"
O 1.162422e+00 1.369642e-11 7.485111e-12 8.223924e-01 -6.106616e-13 -1.885043e-13
C 6.687189e-03 1.443179e-11 7.855768e-12 -1.058344e+00 7.923842e-13 2.270311e-13
O -1.159937e+00 1.519201e-11 8.222283e-12 2.360208e-01 -2.317953e-13 -5.992878e-14
3
Lattice="1.800000e+01 0.000000e+00 0.000000e+00 0.000000e+00 1.800000e+01 0.000000e+00 0.000000e+00 0.000000e+00 1.800000e+01" Properties=species:S:1:pos:R:3:force:R:3 energy=1.708599e-03 dipole="9.827746e-03 -2.056643e-14 3.414358e-15" pol="2.614283e+01 5.315863e-11 -2.941934e-10 5.315863e-11 1.210576e+01 4.076574e-13 -2.941934e-10 4.076574e-13 1.210576e+01" pbc="T T T"
O 1.170697e+00 1.454121e-11 7.796494e-12 -3.382567e-01 7.916050e-14 2.843107e-13
C 4.280675e-03 1.499438e-11 8.199936e-12 -3.925484e-01 4.083508e-13 8.670688e-15
O -1.166403e+00 1.548345e-11 8.595250e-12 7.308257e-01 -4.015856e-13 -1.648376e-13
3
Lattice="1.800000e+01 0.000000e+00 0.000000e+00 0.000000e+00 1.800000e+01 0.000000e+00 0.000000e+00 0.000000e+00 1.800000e+01" Properties=species:S:1:pos:R:3:force:R:3 energy=6.640059e-03 dipole="3.056876e-02 9.472340e-15 -1.061492e-14" pol="2.567700e+01 -4.375654e-10 -3.514094e-10 -4.375654e-10 1.198177e+01 1.615706e-12 -3.514094e-10 1.615706e-12 1.198177e+01" pbc="T T T"
O 1.158904e+00 1.555197e-11 8.362409e-12 1.321048e+00 -9.374756e-14 -2.481692e-13
C 7.493834e-03 1.565939e-11 8.552776e-12 -1.304681e+00 -6.977656e-14 3.447980e-13
O -1.157024e+00 1.574148e-11 8.756632e-12 -1.628872e-02 4.168339e-14 1.014391e-13
3
Lattice="1.800000e+01 0.000000e+00 0.000000e+00 0.000000e+00 1.800000e+01 0.000000e+00 0.000000e+00 0.000000e+00 1.800000e+01" Properties=species:S:1:pos:R:3:force:R:3 energy=1.218821e-02 dipole="4.467221e-02 -1.294558e-14 -5.777497e-15" pol="2.565830e+01 -4.168004e-10 3.569652e-10 -4.168004e-10 1.197833e+01 -1.613972e-12 3.569652e-10 -1.613972e-12 1.197833e+01" pbc="T T T"
O 1.157589e+00 1.615529e-11 8.649280e-12 1.700540e+00 4.859338e-14 -1.341040e-13
C 9.688739e-03 1.604051e-11 8.753812e-12 -1.913115e+00 -1.819441e-15 1.446658e-13
O -1.157356e+00 1.594880e-11 8.855598e-12 2.126792e-01 -1.243141e-13 2.975689e-14
3
Lattice="1.800000e+01 0.000000e+00 0.000000e+00 0.000000e+00 1.800000e+01 0.000000e+00 0.000000e+00 0.000000e+00 1.800000e+01" Properties=species:S:1:pos:R:3:force:R:3 energy=2.211134e-04 dipole="-1.239754e-02 1.816076e-15 8.594055e-15" pol="2.580419e+01 -1.852411e-10 2.346175e-10 -1.852411e-10 1.201494e+01 -4.175532e-13 2.346175e-10 -4.175532e-13 1.201494e+01" pbc="T T T"
O 1.164361e+00 1.684848e-11 8.773818e-12 5.680067e-02 4.200654e-15 -6.193193e-14
C 7.899678e-04 1.649599e-11 8.910773e-12 5.194343e-01 7.859444e-14 -1.002328e-13
O -1.157447e+00 1.613057e-11 9.044548e-12 -5.762700e-01 -5.701851e-14 1.074766e-13
3
Lattice="1.800000e+01 0.000000e+00 0.000000e+00 0.000000e+00 1.800000e+01 0.000000e+00 0.000000e+00 0.000000e+00 1.800000e+01" Properties=species:S:1:pos:R:3:force:R:3 energy=4.306761e-03 dipole="3.507333e-02 5.165205e-15 -7.212394e-15" pol="2.587970e+01 2.040010e-10 -3.922363e-10 2.040010e-10 1.203723e+01 -3.561347e-12 -3.922363e-10 -3.561347e-12 1.203723e+01" pbc="T T T"
O 1.163205e+00 1.719059e-11 8.775925e-12 8.764277e-01 3.192197e-13 -1.838468e-13
C 8.225816e-03 1.672702e-11 8.973817e-12 -1.455213e+00 -4.260078e-13 2.195472e-13
O -1.161874e+00 1.627565e-11 9.173461e-12 5.788760e-01 1.674335e-13 -3.189141e-14
3
Lattice="1.800000e+01 0.000000e+00 0.000000e+00 0.000000e+00 1.800000e+01 0.000000e+00 0.000000e+00 0.000000e+00 1.800000e+01" Properties=species:S:1:pos:R:3:force:R:3 energy=7.692294e-03 dipole="-3.849652e-02 -2.865184e-14 1.322925e-15" pol="2.573193e+01 -8.360426e-10 4.499721e-10 -8.360426e-10 1.199758e+01 1.020023e-12 4.499721e-10 1.020023e-12 1.199758e+01" pbc="T T T"
O 1.164162e+00 1.745403e-11 8.755949e-12 -2.784553e-01 -1.905935e-13 7.715624e-14
C -3.280448e-03 1.692309e-11 9.016072e-12 1.631069e+00 8.799944e-13 -3.433718e-13
O -1.154192e+00 1.641702e-11 9.276590e-12 -1.352712e+00 -6.932948e-13 3.917976e-13
3
Lattice="1.800000e+01 0.000000e+00 0.000000e+00 0.000000e+00 1.800000e+01 0.000000e+00 0.000000e+00 0.000000e+00 1.800000e+01" Properties=species:S:1:pos:R:3:force:R:3 energy=5.036296e-03 dipole="2.923409e-02 4.326238e-15 -1.111495e-14" pol="2.572199e+01 5.741746e-10 -2.033218e-10 5.741746e-10 1.199386e+01 -1.749223e-12 -2.033218e-10 -1.749223e-12 1.199386e+01" pbc="T T T"
O 1.160007e+00 1.771781e-11 8.735924e-12 1.167945e+00 4.874481e-13 -2.991952e-13
C 7.291187e-03 1.712826e-11 9.045839e-12 -1.239778e+00 -5.134302e-13 4.026888e-13
O -1.157976e+00 1.654832e-11 9.367023e-12 7.191007e-02 -5.871838e-14 -4.796769e-14
3
Lattice="1.800000e+01 0.000000e+00 0.000000e+00 0.000000e+00 1.800000e+01 0.000000e+00 0.000000e+00 0.000000e+00 1.800000e+01" Properties=species:S:1:pos:R:3:force:R:3 energy=7.076277e-03 dipole="-3.964683e-02 -1.301404e-14 1.353127e-14" pol="2.578065e+01 -1.465949e-10 1.008901e-09 -1.465949e-10 1.201097e+01 -1.124430e-12 1.008901e-09 -1.124430e-12 1.201097e+01" pbc="T T T"
O 1.165331e+00 1.788988e-11 8.722687e-12 -4.221482e-01 -1.417819e-13 6.232508e-14
C -3.468043e-03 1.726750e-11 9.071448e-12 1.668465e+00 7.904258e-13 -5.487202e-13
O -1.155220e+00 1.663573e-11 9.410763e-12 -1.246418e+00 -5.738775e-13 3.818559e-13
3
Lattice="1.800000e+01 0.000000e+00 0.000000e+00 0.000000e+00 1.800000e+01 0.000000e+00 0.000000e+00 0.000000e+00 1.800000e+01" Properties=species:S:1:pos:R:3:force:R:3 energy=5.466353e-03 dipole="-1.883303e-02 -8.247843e-15 6.941163e-15" pol="2.623531e+01 1.477479e-10 -1.230847e-10 1.477479e-10 1.213099e+01 -4.933552e-13 -1.230847e-10 -4.933552e-13 1.213099e+01" pbc="T T T"
O 1.174448e+00 1.870313e-11 8.736792e-12 -1.122311e+00 -7.266756e-13 3.344690e-13
C -2.517795e-04 1.795125e-11 9.108739e-12 7.426741e-01 4.231055e-13 -2.632113e-13
O -1.166754e+00 1.719461e-11 9.477072e-12 3.796053e-01 3.872815e-13 -1.635399e-13
3
Lattice="1.800000e+01 0.000000e+00 0.000000e+00 0.000000e+00 1.800000e+01 0.000000e+00 0.000000e+00 0.000000e+00 1.800000e+01" Properties=species:S:1:pos:R:3:force:R:3 energy=8.072490e-03 dipole="3.873068e-02 1.505953e-14 -8.744905e-15" pol="2.571993e+01 4.134404e-10 -6.980683e-10 4.134404e-10 1.199434e+01 9.568889e-13 -6.980683e-10 9.568889e-13 1.199434e+01" pbc="T T T"
O 1.159363e+00 1.931448e-11 8.896863e-12 1.391005e+00 6.698876e-13 -1.978615e-13
C 8.773220e-03 1.867176e-11 9.066340e-12 -1.643781e+00 -7.545232e-13 2.504974e-13
O -1.158443e+00 1.803359e-11 9.243689e-12 2.528730e-01 9.691632e-14 -2.252577e-14
3
Lattice="1.800000e+01 0.000000e+00 0.000000e+00 0.000000e+00 1.800000e+01 0.000000e+00 0.000000e+00 0.000000e+00 1.800000e+01" Properties=species:S:1:pos:R:3:force:R:3 energy=4.485547e-03 dipole="1.940681e-02 2.475475e-14 -2.396938e-16" pol="2.620169e+01 -3.115613e-10 -7.638592e-10 -3.115613e-10 1.212207e+01 6.907989e-13 -7.638592e-10 6.907989e-13 1.212207e+01" pbc="T T T"
O 1.171424e+00 1.962386e-11 8.949530e-12 -2.853524e-01 1.877579e-14 8.314788e-14
C 5.797113e-03 1.912135e-11 9.031412e-12 -7.689551e-01 -6.442470e-13 -3.491285e-14
O -1.168270e+00 1.857322e-11 9.103809e-12 1.054343e+00 5.779453e-13 -1.974554e-14
3
Lattice="1.800000e+01 0.000000e+00 0.000000e+00 0.000000e+00 1.800000e+01 0.000000e+00 0.000000e+00 0.000000e+00 1.800000e+01" Properties=species:S:1:pos:R:3:force:R:3 energy=5.694300e-03 dipole="-3.924416e-02 -1.605842e-14 1.311916e-15" pol="2.588046e+01 -1.191283e-09 -7.081318e-10 -1.191283e-09 1.203798e+01 1.528859e-12 -7.081318e-10 1.528859e-12 1.203798e+01" pbc="T T T"
O 1.167573e+00 1.975805e-11 8.957112e-12 -6.598833e-01 -2.532772e-13 2.869520e-14
C -3.421608e-03 1.927625e-11 9.006589e-12 1.628485e+00 6.819563e-13 -2.797173e-14
O -1.157497e+00 1.879857e-11 9.058028e-12 -9.687003e-01 -4.498376e-13 2.466303e-14
3
Lattice="1.800000e+01 0.000000e+00 0.000000e+00 0.000000e+00 1.800000e+01 0.000000e+00 0.000000e+00 0.000000e+00 1.800000e+01" Properties=species:S:1:pos:R:3:force:R:3 energy=3.733405e-03 dipole="-2.620698e-02 2.961774e-14 4.227633e-15" pol="2.612109e+01 8.610188e-10 7.857924e-11 8.610188e-10 1.210118e+01 1.025669e-12 7.857924e-11 1.025669e-12 1.210118e+01" pbc="T T T"
O 1.172296e+00 2.081443e-11 9.002813e-12 -9.922063e-01 3.938354e-13 -9.656137e-14
C -1.405237e-03 2.102206e-11 8.819003e-12 1.050553e+00 -5.914024e-13 6.167580e-14
O -1.163734e+00 2.116840e-11 8.621988e-12 -5.840205e-02 3.114589e-13 3.674010e-14
3
Lattice="1.800000e+01 0.000000e+00 0.000000e+00 0.000000e+00 1.800000e+01 0.000000e+00 0.000000e+00 0.000000e+00 1.800000e+01" Properties=species:S:1:pos:R:3:force:R:3 energy=1.205931e-02 dipole="4.329369e-02 -5.985871e-14 1.354484e-14" pol="2.624301e+01 3.536524e-11 -2.792174e-10 3.536524e-11 1.213644e+01 9.814736e-13 -2.792174e-10 9.814736e-13 1.213644e+01" pbc="T T T"
O 1.170805e+00 2.141248e-11 9.268748e-12 1.224697e-01 -2.674377e-13 -6.607763e-14
C 9.581402e-03 2.208118e-11 8.766642e-12 -1.707713e+00 1.525404e-12 -6.051709e-13
O -1.170491e+00 2.282885e-11 8.268819e-12 1.585308e+00 -1.214319e-12 5.427920e-13
3
Lattice="1.800000e+01 0.000000e+00 0.000000e+00 0.000000e+00 1.800000e+01 0.000000e+00 0.000000e+00 0.000000e+00 1.800000e+01" Properties=species:S:1:pos:R:3:force:R:3 energy=2.128743e-03 dipole="2.774556e-02 8.670022e-16 2.062888e-14" pol="2.590366e+01 5.494943e-10 -5.657164e-10 5.494943e-10 1.204288e+01 -4.048301e-12 -5.657164e-10 -4.048301e-12 1.204288e+01" pbc="T T T"
O 1.164208e+00 2.160469e-11 9.348726e-12 6.499888e-01 -3.485309e-13 4.119282e-13
C 7.080206e-03 2.244176e-11 8.784224e-12 -1.146889e+00 5.157010e-13 -6.975010e-13
O -1.162018e+00 2.325013e-11 8.197750e-12 4.969738e-01 -2.195217e-13 3.168194e-13
3
Lattice="1.800000e+01 0.000000e+00 0.000000e+00 0.000000e+00 1.800000e+01 0.000000e+00 0.000000e+00 0.000000e+00 1.800000e+01" Properties=species:S:1:pos:R:3:force:R:3 energy=8.385165e-03 dipole="3.534722e-02 -2.489656e-14 2.561245e-14" pol="2.566805e+01 -2.486568e-10 -5.666136e-11 -2.486568e-10 1.197983e+01 9.836823e-13 -5.666136e-11 9.836823e-13 1.197983e+01" pbc="T T T"
O 1.158402e+00 2.177796e-11 9.410632e-12 1.455520e+00 -1.078559e-12 8.109765e-13
C 8.237714e-03 2.264686e-11 8.796974e-12 -1.510876e+00 1.083060e-12 -8.573581e-13
O -1.157079e+00 2.352527e-11 8.163204e-12 5.544355e-02 -8.740601e-14 2.642506e-14
3
Lattice="1.800000e+01 0.000000e+00 0.000000e+00 0.000000e+00 1.800000e+01 0.000000e+00 0.000000e+00 0.000000e+00 1.800000e+01" Properties=species:S:1:pos:R:3:force:R:3 energy=5.671107e-03 dipole="-3.667282e-02 1.664071e-14 -2.631347e-14" pol="2.580247e+01 2.029174e-10 1.672430e-10 2.029174e-10 1.201651e+01 3.960424e-12 1.672430e-10 3.960424e-12 1.201651e+01" pbc="T T T"
O 1.165667e+00 2.210889e-11 9.518633e-12 -4.191783e-01 3.245999e-13 -4.130003e-13
C -3.006871e-03 2.301584e-11 8.811872e-12 1.538320e+00 -1.101203e-12 1.055514e-12
O -1.155903e+00 2.393291e-11 8.126386e-12 -1.119237e+00 7.626822e-13 -7.598590e-13
3
Lattice="1.800000e+01 0.000000e+00 0.000000e+00 0.000000e+00 1.800000e+01 0.000000e+00 0.000000e+00 0.000000e+00 1.800000e+01" Properties=species:S:1:pos:R:3:force:R:3 energy=6.320671e-03 dipole="-2.574417e-02 4.136661e-14 -8.872668e-15" pol="2.622218e+01 5.613372e-10 -2.858258e-11 5.613372e-10 1.212817e+01 2.288590e-12 -2.858258e-11 2.288590e-12 1.212817e+01" pbc="T T T"
O 1.174539e+00 2.318314e-11 9.664901e-12 -1.220557e+00 9.559468e-13 -7.186562e-13
C -1.344070e-03 2.392424e-11 8.956692e-12 1.017376e+00 -9.825813e-13 4.996822e-13
O -1.166024e+00 2.461169e-11 8.237990e-12 2.031372e-01 3.026484e-14 1.033489e-13
3
Lattice="1.800000e+01 0.000000e+00 0.000000e+00 0.000000e+00 1.800000e+01 0.000000e+00 0.000000e+00 0.000000e+00 1.800000e+01" Properties=species:S:1:pos:R:3:force:R:3 energy=1.540562e-03 dipole="1.711422e-02 7.954238e-16 1.744504e-14" pol="2.609575e+01 -2.256822e-11 -1.316038e-10 -2.256822e-11 1.209358e+01 3.863584e-12 -1.316038e-10 3.863584e-12 1.209358e+01" pbc="T T T"
O 1.169193e+00 2.349552e-11 9.683573e-12 -7.056379e-02 1.435362e-13 -8.225698e-15
C 5.427372e-03 2.412258e-11 9.002141e-12 -6.882740e-01 1.706330e-13 -5.098939e-13
O -1.165760e+00 2.473131e-11 8.300538e-12 7.588763e-01 -2.923084e-13 5.083358e-13
3
Lattice="1.800000e+01 0.000000e+00 0.000000e+00 0.000000e+00 1.800000e+01 0.000000e+00 0.000000e+00 0.000000e+00 1.800000e+01" Properties=species:S:1:pos:R:3:force:R:3 energy=7.558962e-03 dipole="4.367882e-02 -2.603059e-14 2.105686e-14" pol="2.602697e+01 1.290062e-10 5.313570e-10 1.290062e-10 1.207829e+01 3.788331e-14 5.313570e-10 3.788331e-14 1.207829e+01" pbc="T T T"
O 1.165957e+00 2.399363e-11 9.716328e-12 6.829081e-01 -2.741450e-13 3.202746e-13
C 9.601426e-03 2.444678e-11 9.075831e-12 -1.776093e+00 7.891104e-13 -8.741166e-13
O -1.165660e+00 2.492269e-11 8.435466e-12 1.093282e+00 -4.573817e-13 5.825923e-13
3
Lattice="1.800000e+01 0.000000e+00 0.000000e+00 0.000000e+00 1.800000e+01 0.000000e+00 0.000000e+00 0.000000e+00 1.800000e+01" Properties=species:S:1:pos:R:3:force:R:3 energy=1.257900e-02 dipole="-4.504899e-02 2.057709e-14 -2.349343e-14" pol="2.565141e+01 -4.452476e-10 -1.241206e-10 -4.452476e-10 1.197650e+01 -4.414083e-13 -1.241206e-10 -4.414083e-13 1.197650e+01" pbc="T T T"
O 1.162676e+00 2.461384e-11 9.764753e-12 -2.025601e-01 1.969605e-13 -8.734181e-14
C -4.288382e-03 2.487392e-11 9.195977e-12 1.931165e+00 -5.970107e-13 9.789909e-13
O -1.151951e+00 2.510399e-11 8.640457e-12 -1.728709e+00 4.879658e-13 -8.816638e-13
3
Lattice="1.800000e+01 0.000000e+00 0.000000e+00 0.000000e+00 1.800000e+01 0.000000e+00 0.000000e+00 0.000000e+00 1.800000e+01" Properties=species:S:1:pos:R:3:force:R:3 energy=5.458118e-03 dipole="-2.292280e-02 1.186957e-15 -2.314211e-15" pol="2.621307e+01 -3.407461e-10 3.731346e-10 -3.407461e-10 1.212543e+01 -2.806382e-12 3.731346e-10 -2.806382e-12 1.212543e+01" pbc="T T T"
O 1.174179e+00 2.520249e-11 9.851205e-12 -1.146926e+00 4.866417e-14 -3.865943e-13
C -8.963968e-04 2.524098e-11 9.352386e-12 9.069338e-01 -8.499695e-14 2.797120e-13
O -1.165999e+00 2.527577e-11 8.842683e-12 2.399517e-01 -4.080670e-15 1.100775e-13
3
Lattice="1.800000e+01 0.000000e+00 0.000000e+00 0.000000e+00 1.800000e+01 0.000000e+00 0.000000e+00 0.000000e+00 1.800000e+01" Properties=species:S:1:pos:R:3:force:R:3 energy=8.783992e-04 dipole="1.936107e-02 1.786434e-14 -5.921958e-15" pol="2.602769e+01 2.673637e-10 -4.407444e-10 2.673637e-10 1.207551e+01 1.342542e-13 -4.407444e-10 1.342542e-13 1.207551e+01" pbc="T T T"
O 1.167525e+00 2.634335e-11 1.003472e-11 1.483760e-01 1.230213e-13 -1.239473e-13
C 5.775808e-03 2.601392e-11 9.696937e-12 -7.861966e-01 -4.031635e-13 -4.020534e-14
O -1.164354e+00 2.565964e-11 9.381256e-12 6.378682e-01 3.071481e-13 6.099877e-14
3
Lattice="1.800000e+01 0.000000e+00 0.000000e+00 0.000000e+00 1.800000e+01 0.000000e+00 0.000000e+00 0.000000e+00 1.800000e+01" Properties=species:S:1:pos:R:3:force:R:3 energy=1.202869e-03 dipole="1.445103e-02 -1.370019e-16 1.679741e-14" pol="2.609699e+01 -9.126803e-11 8.245609e-11 -9.126803e-11 1.209374e+01 1.970540e-13 8.245609e-11 1.970540e-13 1.209374e+01" pbc="T T T"
O 1.169384e+00 2.684149e-11 1.006491e-11 -1.293121e-01 -1.657626e-13 1.178028e-13
C 5.006918e-03 2.635489e-11 9.891391e-12 -5.810246e-01 -6.273917e-14 -3.166089e-13
O -1.165638e+00 2.588558e-11 9.685309e-12 7.103693e-01 1.996190e-13 2.319638e-13
3
Lattice="1.800000e+01 0.000000e+00 0.000000e+00 0.000000e+00 1.800000e+01 0.000000e+00 0.000000e+00 0.000000e+00 1.800000e+01" Properties=species:S:1:pos:R:3:force:R:3 energy=1.154896e-02 dipole="-4.488509e-02 -2.795848e-14 2.921925e-15" pol="2.568111e+01 4.154740e-10 -1.327598e-10 4.154740e-10 1.198458e+01 -1.177506e-12 -1.327598e-10 -1.177506e-12 1.198458e+01" pbc="T T T"
O 1.163345e+00 2.740357e-11 1.016257e-11 -2.742248e-01 -1.728322e-13 5.503089e-14
C -4.268303e-03 2.679504e-11 1.011149e-11 1.916116e+00 1.091126e-12 1.120358e-14
O -1.152634e+00 2.620831e-11 1.005052e-11 -1.641998e+00 -8.719562e-13 -9.013826e-14
3
Lattice="1.800000e+01 0.000000e+00 0.000000e+00 0.000000e+00 1.800000e+01 0.000000e+00 0.000000e+00 0.000000e+00 1.800000e+01" Properties=species:S:1:pos:R:3:force:R:3 energy=7.433168e-03 dipole="2.779065e-02 3.392458e-14 -2.316391e-14" pol="2.624203e+01 1.666955e-11 7.372320e-10 1.666955e-11 1.213372e+01 4.788081e-13 7.372320e-10 4.788081e-13 1.213372e+01" pbc="T T T"
O 1.171794e+00 2.800268e-11 1.033417e-11 -2.088822e-01 -1.344005e-14 -1.128355e-13
C 7.127820e-03 2.728448e-11 1.033918e-11 -1.095287e+00 -8.509816e-13 3.985660e-13
O -1.169639e+00 2.653237e-11 1.039046e-11 1.304213e+00 8.874643e-13 -2.178768e-13
3
Lattice="1.800000e+01 0.000000e+00 0.000000e+00 0.000000e+00 1.800000e+01 0.000000e+00 0.000000e+00 0.000000e+00 1.800000e+01" Properties=species:S:1:pos:R:3:force:R:3 energy=7.440748e-03 dipole="4.266230e-02 2.890409e-14 -1.242853e-14" pol="2.583026e+01 1.182118e-10 1.690156e-10 1.182118e-10 1.202485e+01 -2.630922e-12 1.690156e-10 -2.630922e-12 1.202485e+01" pbc="T T T"
O 1.161604e+00 2.837334e-11 1.043319e-11 1.181531e+00 7.727106e-13 -1.626021e-13
C 9.406132e-03 2.758597e-11 1.050967e-11 -1.783238e+00 -1.217901e-12 2.997666e-13
O -1.161160e+00 2.678552e-11 1.060699e-11 6.018139e-01 4.142481e-13 -9.039332e-14
3
Lattice="1.800000e+01 0.000000e+00 0.000000e+00 0.000000e+00 1.800000e+01 0.000000e+00 0.000000e+00 0.000000e+00 1.800000e+01" Properties=species:S:1:pos:R:3:force:R:3 energy=4.061238e-03 dipole="-1.887728e-02 -1.887378e-14 -3.281538e-15" pol="2.567320e+01 -3.296863e-10 -2.974765e-10 -3.296863e-10 1.197982e+01 -2.048845e-12 -2.974765e-10 -2.048845e-12 1.197982e+01" pbc="T T T"
O 1.161747e+00 2.869014e-11 1.049374e-11 2.618304e-01 1.137934e-13 -9.011657e-14
C -2.132655e-04 2.785917e-11 1.065141e-11 8.057708e-01 6.745212e-13 -2.596951e-14
O -1.154080e+00 2.704411e-11 1.081689e-11 -1.067652e+00 -7.618259e-13 1.408261e-13
3
Lattice="1.800000e+01 0.000000e+00 0.000000e+00 0.000000e+00 1.800000e+01 0.000000e+00 0.000000e+00 0.000000e+00 1.800000e+01" Properties=species:S:1:pos:R:3:force:R:3 energy=5.692984e-04 dipole="1.218148e-02 2.947657e-14 -3.169295e-14" pol="2.607602e+01 3.211727e-10 -2.573691e-10 3.211727e-10 1.208801e+01 -8.722606e-13 -2.573691e-10 -8.722606e-13 1.208801e+01" pbc="T T T"
O 1.169053e+00 2.952162e-11 1.063312e-11 -1.242285e-01 9.625741e-14 -2.048839e-13
C 4.648654e-03 2.887744e-11 1.108204e-11 -4.911972e-01 -6.170770e-13 5.464320e-13
O -1.165036e+00 2.818266e-11 1.158229e-11 6.154541e-01 4.459174e-13 -3.455528e-13
