B  N 
 1.0000000000000000
     1.2565425667921508   -2.1763955675570150   -0.0000000000000000
     1.2565425667921508    2.1763955675570150    0.0000000000000000
    -0.0000000000000000    0.0000000000000000   20.0000000000000000
 B   N  
   2   2
Cartesian
  1.2565425667921508  0.7254651891856614 11.5000000000000000
  1.2565425667921508  0.7254651891856613  8.5000000000000000
  1.2565425667921508 -0.7254651891856613 11.5000000000000000
  1.2565425667921508 -0.7254651891856614  8.5000000000000000
