  60
 units: A
      C                    2.211941    0.593929    2.661925
      C                    3.110383    0.164480    1.623631
      C                    1.329887   -0.310203    3.232291
      C                    3.094150   -1.153021    1.193822
      C                    3.192484   -1.453269   -0.209524
      C                    3.225059    1.231717    0.665724
      C                    3.319685    0.942395   -0.686263
      C                    3.303253   -0.425075   -1.132327
      C                   -0.450346    1.367270    3.203770
      C                    0.465003    2.305816    2.611582
      C                   -0.025839    0.083754    3.508523
      C                    1.771250    1.926385    2.345721
      C                    2.397568    2.320636    1.112159
      C                   -0.264382    3.094735    1.654837
      C                    0.339344    3.474842    0.466650
      C                    1.694818    3.080312    0.190210
      C                   -2.127751   -0.839406    2.663821
      C                   -2.568400    0.493070    2.347993
      C                   -0.880536   -1.040421    3.233459
      C                   -1.745356    1.576070    2.613075
      C                   -1.630342    2.643585    1.655597
      C                   -3.307681    0.436646    1.115192
      C                   -3.196871    1.464902    0.192638
      C                   -2.342590    2.588898    0.467968
      C                   -0.503185   -2.977230    1.787569
      C                   -1.797913   -2.768346    1.196284
      C                   -0.052840   -2.128931    2.786727
      C                   -2.595096   -1.719488    1.626334
      C                   -3.324086   -0.930772    0.669090
      C                   -1.699480   -3.068857   -0.206984
      C                   -2.402095   -2.309323   -1.129185
      C                   -3.229432   -1.220294   -0.682835
      C                    2.178678   -2.091416    1.786093
      C                    1.711194   -2.971748    0.748754
      C                    1.312987   -1.677579    2.786014
      C                    0.395504   -3.406871    0.749527
      C                   -0.343921   -3.463408   -0.483169
      C                    2.337949   -2.577154   -0.484510
      C                    1.625648   -2.631697   -1.672028
      C                    0.259831   -3.083065   -1.671297
      C                   -2.216317   -0.582586   -2.678954
      C                   -1.775713   -1.915089   -2.362724
      C                   -0.469456   -2.294391   -2.628420
      C                   -1.334488    0.321661   -3.249561
      C                   -2.183089    2.102902   -1.802829
      C                   -3.098341    1.164480   -1.210625
      C                   -3.114518   -0.153026   -1.640521
      C                   -1.317750    1.689128   -2.803151
      C                    0.498299    2.988644   -1.804232
      C                   -0.400157    3.418299   -0.765994
      C                   -1.715773    2.983258   -0.765313
      C                    0.048048    2.140580   -2.803747
      C                    2.123014    0.851192   -2.680717
      C                    2.590351    1.731183   -1.643216
      C                    1.793052    2.779890   -1.213038
      C                    0.875862    1.052120   -3.250532
      C                    0.445736   -1.355752   -3.220716
      C                    1.740540   -1.564298   -2.629714
      C                    2.563605   -0.481325   -2.364871
      C                    0.021305   -0.072148   -3.525664
