13

Ar    	  0.000000000000	  0.000000000000	  4.640000000000
C     	  0.000000000000	  1.397000000000	  0.000000000000
C     	  1.209800000000	  0.698500000000	  0.000000000000
C     	  1.209800000000	 -0.698500000000	  0.000000000000
C     	  0.000000000000	 -1.397000000000	  0.000000000000
C     	 -1.209800000000	 -0.698500000000	  0.000000000000
C     	 -1.209800000000	  0.698500000000	  0.000000000000
H     	  0.000000000000	  2.481000000000	  0.000000000000
H     	  2.148600000000	  1.240500000000	  0.000000000000
H     	  2.148600000000	 -1.240500000000	  0.000000000000
H     	  0.000000000000	 -2.481000000000	  0.000000000000
H     	 -2.148600000000	 -1.240500000000	  0.000000000000
H     	 -2.148600000000	  1.240500000000	  0.000000000000
