  20
 units: A
      C                    1.685233   -0.699646   -0.956381
      C                    1.793187    0.651159   -0.471224
      C                    0.605289   -0.704247   -1.840021
      C                    0.072938    0.692707   -1.933665
      C                    0.843056    1.517249   -1.110187
      C                   -0.417943   -1.494004   -1.207224
      C                   -1.546537   -0.656738   -0.937885
      C                   -1.243373    0.676538   -1.358829
      C                    0.043068   -2.062074    0.028690
      C                   -0.843087   -1.517219    1.110258
      C                   -1.793217   -0.651129    0.471294
      C                    1.328552   -1.551545    0.221891
      C                    1.243342   -0.676510    1.358900
      C                   -0.072970   -0.692677    1.933735
      C                    1.546506    0.656767    0.937956
      C                    0.417912    1.494034    1.207295
      C                   -0.605320    0.704277    1.840090
      C                   -1.685264    0.699675    0.956453
      C                   -1.328584    1.551575   -0.221820
      C                   -0.043100    2.062105   -0.028620
