192

C      14.431768000000000     14.133967999999999     13.881368000000000
C       5.618428000000000     12.587068000000000     12.120267999999999
C       6.756368000000000     11.590268000000000      8.448938000000000
C       1.494788000000000      0.349210000000000     15.161668000000001
C       6.973208000000000     16.384768000000001      8.248718000000000
C       0.489421000000000      2.026188000000000      6.277958000000000
C       2.930628000000000      5.015638000000000     13.677168000000000
C      13.301667999999999     10.989267999999999      0.160033000000000
C      13.508267999999999      1.999268000000000      5.132278000000000
C      10.351768000000000      4.300458000000000      3.476388000000000
C      10.617468000000001     14.967867999999999      5.753868000000000
C      10.589067999999999     14.122368000000000     10.095967999999999
C       0.242432000000000      6.579178000000000      9.492048000000000
C       1.811998000000000     10.663468000000000      1.352958000000000
C      15.784167999999999     13.749668000000000      1.740568000000000
C       9.955408000000000     14.090068000000000      1.716188000000000
C      16.751567999999999      3.759358000000000     14.850968000000000
C      10.187367999999999     10.106567999999999      4.506688000000000
C      11.935867999999999     11.248768000000000      8.559597999999999
C       0.826931000000000     13.284967999999999     14.057668000000000
C       6.499488000000000      2.583598000000000     11.492267999999999
C      11.552668000000001      7.524758000000000     15.950468000000001
C       2.632788000000000      9.162748000000001     12.184568000000001
C      15.015167999999999      0.815203000000000     13.147368000000000
C      16.168168000000001      0.646498000000000      1.551178000000000
C       5.861348000000000      9.092338000000000      2.748138000000000
C       7.940098000000000     16.048368000000000     13.052568000000001
C       5.970988000000000      8.297928000000001     13.765568000000000
C       2.531228000000000     10.452368000000000      7.747658000000000
C      14.824168000000000      8.869928000000000      6.695018000000000
C      11.647068000000001      0.233303000000000      1.170518000000000
C       8.757698000000000      5.532148000000000      0.512582000000000
C      13.559168000000000      4.578398000000000      0.411096000000000
C       7.641248000000000      6.990318000000000      6.195478000000000
C      15.032667999999999     16.602968000000001      8.875368000000000
C       3.539258000000000      4.930458000000000      6.813808000000000
C       3.380968000000000     13.900968000000001      9.603668000000001
C       2.747568000000000     14.307767999999999      1.470688000000000
C      11.365968000000001      0.835523000000000     10.438368000000001
C       6.378058000000000      3.084068000000000     15.058468000000000
C       3.642078000000000      7.295868000000000      0.276444000000000
C      11.742267999999999      5.162518000000000      7.570008000000000
C       9.584607999999999      4.827818000000000     12.573168000000001
C      14.266268000000000     15.807067999999999      5.114468000000000
C      15.951668000000000     12.498168000000000      7.770698000000000
C      13.856168000000000     11.790368000000001      4.765888000000000
C       2.079088000000000     13.296367999999999      4.983698000000000
C       9.511798000000001      9.759098000000000     12.150468000000000
C       0.321204000000000      7.343628000000000      4.232528000000000
C       3.864168000000000      0.020900000000000      6.281708000000000
C       7.590228000000000     11.290668000000000      0.686051000000000
C       6.095138000000000      4.647288000000000      3.726048000000000
C       8.190048000000001      2.635258000000000      7.732128000000000
C       7.837508000000000      6.878318000000000      9.612398000000001
C      15.797768000000000      7.610908000000000     15.411568000000001
C       2.437188000000000      3.686708000000000      2.621108000000000
C      12.623367999999999      7.029978000000000     11.047167999999999
C       6.433598000000000      0.636328000000000      3.422378000000000
C      12.684068000000000      7.092198000000000      3.726388000000000
C       7.426198000000000     16.550567999999998     16.656268000000001
C       0.532432000000000      2.092188000000000     10.335267999999999
C      10.920968000000000      0.439301000000000     14.197267999999999
C       9.083898000000000     13.155968000000000     14.623468000000001
C       5.014698000000000     13.083868000000001     16.773768000000000
O      14.959568000000001     15.055168000000000     13.124067999999999
O      13.536968000000000     13.564667999999999     14.543768000000000
O       5.951158000000000     11.419468000000000     12.551468000000000
O       5.345718000000000     13.727168000000001     11.538268000000000
O       5.570918000000000     11.331168000000000      8.991228000000000
O       8.013477999999999     11.313867999999999      8.194948000000000
O       2.813808000000000      0.660517000000000     14.820368000000000
O       0.359560000000000     16.635667999999999     15.407868000000001
O       7.346298000000000     16.185967999999999      6.909368000000000
O       6.490098000000000     16.318068000000000      9.519448000000001
O       1.569888000000000      2.463438000000000      6.897328000000000
O      16.315268000000000      1.506088000000000      5.620438000000000
O       2.630088000000000      4.580788000000000     14.964368000000000
O       3.126498000000000      5.509338000000000     12.484068000000001
O      13.083068000000001     10.281867999999999     15.790368000000001
O      13.947267999999999     11.921367999999999      1.047288000000000
O      13.020768000000000      2.088658000000000      6.298548000000000
O      13.681168000000000      1.578098000000000      3.858058000000000
O       9.250588000000000      4.754568000000000      3.243938000000000
O      11.560968000000001      4.158648000000000      3.446318000000000
O      10.041568000000000     15.443968000000000      4.490458000000000
O      11.083767999999999     14.340768000000001      6.991328000000000
O      11.492167999999999     13.224968000000001     10.888667999999999
O       9.497427999999999     15.114868000000000      9.676088000000000
O       0.959957000000000      6.998108000000000     10.501068000000000
O      16.084668000000001      6.372788000000000      8.658668000000000
O       2.332008000000000     10.682368000000000      2.624998000000000
O       1.167588000000000     10.316268000000001      0.206724000000000
O      16.200868000000000     12.849468000000000      2.712228000000000
O      15.712868000000000     14.357468000000001      0.453297000000000
O      10.951468000000000     13.294767999999999      1.843778000000000
O       9.220748000000000     15.203568000000001      1.627238000000000
O      16.473368000000001      5.043548000000000     14.536968000000000
O       0.365393000000000      2.532008000000000     15.194368000000001
O       9.190548000000000      9.224778000000001      4.944018000000000
O      10.738168000000000     11.099767999999999      3.751168000000000
O      13.044867999999999     11.599368000000000      9.400388000000000
O      11.066867999999999     10.921668000000000      7.427018000000000
O       0.914006000000000     11.955368000000000     13.894168000000001
O       0.799269000000000     14.543668000000000     14.625368000000000
O       7.312638000000000      1.445798000000000     11.246668000000000
O       5.956718000000000      3.967348000000000     11.684968000000000
O      12.467768000000000      6.849268000000000     15.043968000000000
O      10.532168000000000      7.977858000000000     16.813468000000000
O       2.128048000000000      9.661987999999999     11.058468000000000
O       2.860708000000000      8.601978000000001     13.363668000000001
O      14.304168000000001      1.010358000000000     14.160268000000000
O      15.834168000000000      0.898510000000000     12.184068000000000
O      14.856868000000000      0.681943000000000      1.189468000000000
O       0.510692000000000     -0.001453000000000      1.498628000000000
O       5.518338000000000     10.329468000000000      2.463828000000000
O       6.315728000000000      7.959278000000000      3.076318000000000
O       6.734488000000000     16.479668000000000     13.195968000000001
O       9.217428000000000     15.629268000000000     12.607568000000001
O       6.758968000000000      8.058068000000000     14.797167999999999
O       5.575508000000000      7.943248000000000     12.462467999999999
O       3.167628000000000     11.632968000000000      7.547598000000000
O       2.205228000000000      9.169378000000000      7.678998000000000
O      13.636068000000000      8.643798000000000      7.182288000000000
O      16.054468000000000      9.286258000000000      6.578058000000000
O      11.629968000000000     16.612068000000001      2.319918000000000
O      11.616268000000000      0.783081000000000     -0.037880000000000
O       8.313528000000000      6.788248000000000      0.336824000000000
O       9.302868000000000      4.244988000000000      0.182705000000000
O      14.831168000000000      5.049928000000000      0.262338000000000
O      12.199068000000000      4.513918000000000      0.599231000000000
O       6.641358000000000      7.862178000000000      6.895118000000000
O       8.862818000000001      6.390228000000000      6.126828000000000
O      16.181868000000001     15.950468000000001      8.475218000000000
O      14.071567999999999      0.520925000000000      9.063998000000000
O       3.435348000000000      5.978628000000000      5.884728000000000
O       3.753828000000000      4.042598000000000      7.819798000000000
O       4.104478000000000     14.353768000000001      8.477758000000000
O       2.375808000000000     13.624768000000000     10.546068000000000
O       3.852428000000000     14.884767999999999      1.739438000000000
O       1.731958000000000     13.641468000000000      1.468238000000000
O      12.162368000000001      0.068156000000000     11.289068000000000
O      10.479367999999999      1.053338000000000      9.452088000000000
O       5.704838000000000      4.341208000000000     15.246168000000001
O       7.459258000000000      2.133788000000000     14.743168000000001
O       2.776068000000000      7.239358000000000      1.497678000000000
O       4.213738000000000      7.422568000000000     15.855468000000000
O      12.882168000000000      5.284088000000000      7.439068000000000
O      10.642768000000000      5.152458000000000      8.083318000000000
O       9.984878000000000      4.112648000000000     11.399568000000000
O       9.637268000000001      5.645868000000000     13.696668000000001
O      13.205168000000000     15.872168000000000      6.037008000000000
O      15.170468000000000     15.517268000000000      4.226018000000000
O      16.822368000000001     12.938468000000000      8.451088000000000
O      15.060067999999999     12.131767999999999      6.958498000000000
O      13.053568000000000     12.879868000000000      4.667388000000000
O      14.023668000000001     10.471068000000001      4.328738000000000
O       0.823735000000000     12.973568000000000      5.280268000000000
O       3.287988000000000     13.685767999999999      4.830668000000000
O      10.026567999999999     10.327968000000000     10.984168000000000
O       9.361917999999999      9.080057999999999     13.411368000000000
O      15.874468000000000      7.621258000000000      4.004398000000000
O       1.568228000000000      7.486288000000000      4.534608000000000
O       2.740628000000000     16.107168000000001      6.201048000000000
O       4.907028000000000      0.938005000000000      6.006838000000000
O       6.967518000000000     11.034167999999999     16.484268000000000
O       8.427928000000000     11.567868000000001      1.676488000000000
O       6.667778000000000      4.768348000000000      4.889848000000000
O       5.919168000000000      4.658078000000000      2.455048000000000
O       9.204587999999999      2.552148000000000      6.845868000000000
O       6.920998000000000      2.655478000000000      8.268128000000001
O       8.434248000000000      7.774918000000000     10.382868000000000
O       7.612318000000000      5.803718000000000      8.960208000000000
O      16.159168000000001      7.667378000000000     14.092067999999999
O      15.757668000000001      7.593788000000000     16.822368000000001
O       2.853368000000000      3.575038000000000      3.835338000000000
O       1.853898000000000      3.667898000000000      1.585338000000000
O      13.649967999999999      6.167878000000000     11.139367999999999
O      11.430567999999999      7.711048000000000     10.768967999999999
O       7.187398000000000     16.428567999999999      3.474008000000000
O       6.008198000000000      1.951668000000000      3.408598000000000
O      13.199968000000000      7.453668000000000      2.517228000000000
O      12.359368000000000      6.300488000000000      4.759108000000000
O       8.156898000000000     15.909967999999999     15.829468000000000
O       6.899698000000000      0.569796000000000      0.447281000000000
O      16.555968000000000      2.407298000000000      9.306497999999999
O       1.561188000000000      2.179648000000000     11.192868000000001
O      10.422568000000000      1.664488000000000     14.084968000000000
O      11.396668000000000     16.217967999999999     14.229468000000001
O       7.850038000000000     13.016868000000001     14.198268000000001
O      10.304468000000000     13.063668000000000     14.901768000000001
O       3.701378000000000     12.542668000000001     16.623367999999999
O       6.119618000000000     13.712768000000001     16.508068000000002
