FeC5O5                                  
   1.0000000000000000     
    25.0000000000000000    0.0000000000000000    0.0000000000000000
     0.0000000000000000   25.0000000000000000    0.0000000000000000
     0.0000000000000000    0.0000000000000000   25.0000000000000000
   C    Fe   O 
     5     1     5
Direct
  0.9995436800000022  0.0000000000000000  0.0720376000000016
  0.9995436800000022  0.0000000000000000  0.9279623999999984
  0.0714200000000034  0.0000000000000000  0.0000000000000000
  0.9634201200000021  0.0622836000000007  0.0000000000000000
  0.9634201200000021  0.9377163999999993  0.0000000000000000
  0.9994656759999998  0.0000000000000000  0.0000000000000000
  0.9996309671999981  0.0000000000000000  0.1183424000000031
  0.9996309671999981  0.0000000000000000  0.8816575999999969
  0.1178403999999986  0.0000000000000000  0.0000000000000000
  0.9401656000000003  0.1024564000000012  0.0000000000000000
  0.9401656000000003  0.8975435999999988  0.0000000000000000

  0.00000000E+00  0.00000000E+00  0.00000000E+00
  0.00000000E+00  0.00000000E+00  0.00000000E+00
  0.00000000E+00  0.00000000E+00  0.00000000E+00
  0.00000000E+00  0.00000000E+00  0.00000000E+00
  0.00000000E+00  0.00000000E+00  0.00000000E+00
  0.00000000E+00  0.00000000E+00  0.00000000E+00
  0.00000000E+00  0.00000000E+00  0.00000000E+00
  0.00000000E+00  0.00000000E+00  0.00000000E+00
  0.00000000E+00  0.00000000E+00  0.00000000E+00
  0.00000000E+00  0.00000000E+00  0.00000000E+00
  0.00000000E+00  0.00000000E+00  0.00000000E+00
