FeC5O5                                  
   1.0000000000000000     
    25.0000000000000000    0.0000000000000000    0.0000000000000000
     0.0000000000000000   25.0000000000000000    0.0000000000000000
     0.0000000000000000    0.0000000000000000   25.0000000000000000
   C    Fe   O 
     5     1     5
Cartesian
 -0.011408     0.0       1.80094
 -0.011408     0.0      -1.80094
  1.7855       0.0       0.0
 -0.914497     1.55709   0.0
 -0.914497    -1.55709   0.0
 -0.0133581    0.0       0.0
 -0.00922582   0.0       2.95856
 -0.00922582   0.0      -2.95856
  2.94601      0.0       0.0
 -1.49586      2.56141   0.0
 -1.49586     -2.56141   0.0

  0.00000000E+00  0.00000000E+00  0.00000000E+00
  0.00000000E+00  0.00000000E+00  0.00000000E+00
  0.00000000E+00  0.00000000E+00  0.00000000E+00
  0.00000000E+00  0.00000000E+00  0.00000000E+00
  0.00000000E+00  0.00000000E+00  0.00000000E+00
  0.00000000E+00  0.00000000E+00  0.00000000E+00
  0.00000000E+00  0.00000000E+00  0.00000000E+00
  0.00000000E+00  0.00000000E+00  0.00000000E+00
  0.00000000E+00  0.00000000E+00  0.00000000E+00
  0.00000000E+00  0.00000000E+00  0.00000000E+00
  0.00000000E+00  0.00000000E+00  0.00000000E+00
